MAPbI3-cubic                            
   1.01200000000000     
     6.2693197513651260    0.0269600731184547    0.0000000000000000
     0.0261229891956606    6.3400479465851056    0.0000000000000000
     0.0000000000000000    0.0000000000000000    6.3397886955238913
   Sb   H    Pb   I 
     1     4     1     3
Selective dynamics
Direct
  0.0005170864816317  0.9952859207616912  0.0000000000000000   T   T   T
  0.1915812756654174  0.8052311352243163  0.0000000000000000   T   T   T
  0.8442825638226408  0.9763844341237261  0.7846703182940900   T   T   T
  0.8442825638226408  0.9763844341237261  0.2153296817059101   T   T   T
  0.1188678745679170  0.2319288604293990  0.0000000000000000   T   T   T
  0.5010809161470677  0.5058238672795922  0.5000000000000000   T   T   T
  0.5047215298920033  0.5085568086112711  0.0000000000000000   T   T   T
  0.4975525148241807  0.0048373255735504  0.5000000000000000   T   T   T
  0.0012850912542751  0.5039913931768287  0.5000000000000000   T   T   T
 
  0.00000000E+00  0.00000000E+00  0.00000000E+00
  0.00000000E+00  0.00000000E+00  0.00000000E+00
  0.00000000E+00  0.00000000E+00  0.00000000E+00
  0.00000000E+00  0.00000000E+00  0.00000000E+00
  0.00000000E+00  0.00000000E+00  0.00000000E+00
  0.00000000E+00  0.00000000E+00  0.00000000E+00
  0.00000000E+00  0.00000000E+00  0.00000000E+00
  0.00000000E+00  0.00000000E+00  0.00000000E+00
  0.00000000E+00  0.00000000E+00  0.00000000E+00
