MAPbI3-cubic                            
   1.01200000000000     
     6.1115285160507637    0.0023765981878881    0.0000000000000000
    -0.0000437553647654    6.1677525806288322    0.0000000000000000
     0.0000000000000000    0.0000000000000000    6.1724465837064928
   As   H    Pb   I 
     1     4     1     3
Selective dynamics
Direct
  0.9967142956924002  0.0013028870422504  0.0000000000000000   T   T   T
  0.1472278878045132  0.8097854103456725  0.0000000000000000   T   T   T
  0.8536905333407294  0.9970271222582731  0.8030153586858785   T   T   T
  0.8536905333407294  0.9970271222582731  0.1969846413141215   T   T   T
  0.1326198887097317  0.2028852679453017  0.0000000000000000   T   T   T
  0.5060475652177463  0.4985517570150718  0.5000000000000000   T   T   T
  0.5018002247104102  0.5058302715320190  0.0000000000000000   T   T   T
  0.5057401733049812  0.0001773142107506  0.5000000000000000   T   T   T
  0.0054126280132412  0.5079535262574844  0.5000000000000000   T   T   T
 
  0.00000000E+00  0.00000000E+00  0.00000000E+00
  0.00000000E+00  0.00000000E+00  0.00000000E+00
  0.00000000E+00  0.00000000E+00  0.00000000E+00
  0.00000000E+00  0.00000000E+00  0.00000000E+00
  0.00000000E+00  0.00000000E+00  0.00000000E+00
  0.00000000E+00  0.00000000E+00  0.00000000E+00
  0.00000000E+00  0.00000000E+00  0.00000000E+00
  0.00000000E+00  0.00000000E+00  0.00000000E+00
  0.00000000E+00  0.00000000E+00  0.00000000E+00
