Calc_6_MAPbI3-cubic                     
   1.01200000000000     
     5.9247861272239248    0.0353369076143035    0.0000000000000000
     0.0330579524042988    5.9924214291159297    0.0000000000000000
     0.0000000000000000    0.0000000000000000    6.0007967188671456
   N    H    Pb   I 
     1     4     1     3
Selective dynamics
Direct
  0.9971868821765257  0.0171900196248722  0.0000000000000000   T   T   T
  0.1097683064171016  0.8848394897187651  0.0000000000000000   T   T   T
  0.8978051360921940  0.0101501830095183  0.8599785643141574   T   T   T
  0.8978051360921940  0.0101501830095183  0.1400214356858423   T   T   T
  0.0842105043187032  0.1639126198094492  0.0000000000000000   T   T   T
  0.5056999491905261  0.4867591863789434  0.5000000000000000   T   T   T
  0.4068422541450070  0.5415887128414609  0.0000000000000000   T   T   T
  0.5945882459495933  0.9786337572081030  0.5000000000000000   T   T   T
  0.0090373157526448  0.4273165272644727  0.5000000000000000   T   T   T
 
  0.00000000E+00  0.00000000E+00  0.00000000E+00
  0.00000000E+00  0.00000000E+00  0.00000000E+00
  0.00000000E+00  0.00000000E+00  0.00000000E+00
  0.00000000E+00  0.00000000E+00  0.00000000E+00
  0.00000000E+00  0.00000000E+00  0.00000000E+00
  0.00000000E+00  0.00000000E+00  0.00000000E+00
  0.00000000E+00  0.00000000E+00  0.00000000E+00
  0.00000000E+00  0.00000000E+00  0.00000000E+00
  0.00000000E+00  0.00000000E+00  0.00000000E+00
