MAPbI3-cubic                            
   1.01200000000000     
     6.2354120392981036   -0.0002842191352165    0.1532976588450113
    -0.0002846387352953    6.2567610881188376   -0.0000243903700848
     0.1538324939767698   -0.0000340006743184    6.2022194343528056
   C    P    H    Pb   I 
     1     1     6     1     3
Selective dynamics
Direct
  0.8937054491916541  0.0000557856491503  0.9313914708391310   T   T   T
  0.0969894505976151  0.9999834734687190  0.1216366575930273   T   T   T
  0.9685030284348344  0.0001378028060242  0.7694780570204874   T   T   T
  0.7950857019942276  0.1424656753567845  0.9542251921179185   T   T   T
  0.7950145167275910  0.8577670196028349  0.9541151596967083   T   T   T
  0.2278991334368008  0.1808498812588736  0.0956579603580534   T   T   T
  0.2277940992941397  0.8190499854632632  0.0955766298364915   T   T   T
  0.0085245207600144  0.9999487726710018  0.3316159383043547   T   T   T
  0.5012014320938705  0.4999988491763498  0.5019006829255960   T   T   T
  0.5041243755091096  0.5000212128572935  0.0012810055935746   T   T   T
  0.5028665562654799 -0.0000051871626863  0.5026934942075786   T   T   T
  0.0017063976654658  0.4999873301457459  0.4950351176927734   T   T   T
 
  0.00000000E+00  0.00000000E+00  0.00000000E+00
  0.00000000E+00  0.00000000E+00  0.00000000E+00
  0.00000000E+00  0.00000000E+00  0.00000000E+00
  0.00000000E+00  0.00000000E+00  0.00000000E+00
  0.00000000E+00  0.00000000E+00  0.00000000E+00
  0.00000000E+00  0.00000000E+00  0.00000000E+00
  0.00000000E+00  0.00000000E+00  0.00000000E+00
  0.00000000E+00  0.00000000E+00  0.00000000E+00
  0.00000000E+00  0.00000000E+00  0.00000000E+00
  0.00000000E+00  0.00000000E+00  0.00000000E+00
  0.00000000E+00  0.00000000E+00  0.00000000E+00
  0.00000000E+00  0.00000000E+00  0.00000000E+00
