MAPbI3-cubic                            
   1.01200000000000     
     6.3418985239048302    0.0000340133626103    0.3194177428411414
     0.0000373827236366    6.4304483278771283    0.0000694975961933
     0.3228186143528196    0.0000308557835175    6.2785714303784301
   C    Sb   H    Pb   I 
     1     1     6     1     3
Selective dynamics
Direct
  0.8622368758468860  0.0000388364359875  0.9161654649096134   T   T   T
  0.0951805354889308  0.0000685410545336  0.1288223367724726   T   T   T
  0.9408889840196992  0.0000392195631038  0.7554388681351977   T   T   T
  0.7671925889828030  0.1387739075882324  0.9456399852191495   T   T   T
  0.7672061941922134  0.8613070626016097  0.9456627364501281   T   T   T
  0.2464756265522599  0.2147984076144786  0.0869514012637934   T   T   T
  0.2464866667998891  0.7853460187145587  0.0869889167540706   T   T   T
  0.9691829246391505  0.0000791886699473  0.3749407896667512   T   T   T
  0.5004416588824440  0.4999298374815723  0.5181577038820990   T   T   T
  0.5290352851125437  0.5000615456908569  0.0226005725912323   T   T   T
  0.4755871988865459  0.0000471566789202  0.5266501954817127   T   T   T
  0.0023288131488925  0.5000655034809841  0.5177213857468774   T   T   T
 
  0.00000000E+00  0.00000000E+00  0.00000000E+00
  0.00000000E+00  0.00000000E+00  0.00000000E+00
  0.00000000E+00  0.00000000E+00  0.00000000E+00
  0.00000000E+00  0.00000000E+00  0.00000000E+00
  0.00000000E+00  0.00000000E+00  0.00000000E+00
  0.00000000E+00  0.00000000E+00  0.00000000E+00
  0.00000000E+00  0.00000000E+00  0.00000000E+00
  0.00000000E+00  0.00000000E+00  0.00000000E+00
  0.00000000E+00  0.00000000E+00  0.00000000E+00
  0.00000000E+00  0.00000000E+00  0.00000000E+00
  0.00000000E+00  0.00000000E+00  0.00000000E+00
  0.00000000E+00  0.00000000E+00  0.00000000E+00
