Calc_11_MAPbI3-cubic                    
   1.01200000000000     
     6.2873896523747801   -0.0000141642002346    0.2847558146135245
    -0.0000124995876784    6.3426152437517027    0.0000150446731449
     0.2865225316856160    0.0000183297426000    6.3119297174137046
   C    As   H    Pb   I 
     1     1     6     1     3
Selective dynamics
Direct
  0.8933062459106843  0.9999632611811043  0.9036399588471119   T   T   T
  0.0983608150558417  0.9999645662407153  0.1077736377601601   T   T   T
  0.9791053485243698  0.9999485530006426  0.7473697084320576   T   T   T
  0.7964448559375336  0.1405959460509493  0.9272888538583735   T   T   T
  0.7964410446593985  0.8592917230217365  0.9273017990207926   T   T   T
  0.2368986101265020  0.1928713966574803  0.0808265912868906   T   T   T
  0.2368854928228789  0.8070593885911329  0.0808337667550028   T   T   T
  0.9848553134165956  0.9999583823395276  0.3245643197133567   T   T   T
  0.5027690016094156  0.4999753829825260  0.5042031762450435   T   T   T
  0.5075890419879017  0.4999347911285603  0.0037093526402526   T   T   T
  0.4894076003665310  0.9999653431006366  0.5018101380466180   T   T   T
  0.0003537025938224  0.4999674257974580  0.4970484585003068   T   T   T
 
  0.00000000E+00  0.00000000E+00  0.00000000E+00
  0.00000000E+00  0.00000000E+00  0.00000000E+00
  0.00000000E+00  0.00000000E+00  0.00000000E+00
  0.00000000E+00  0.00000000E+00  0.00000000E+00
  0.00000000E+00  0.00000000E+00  0.00000000E+00
  0.00000000E+00  0.00000000E+00  0.00000000E+00
  0.00000000E+00  0.00000000E+00  0.00000000E+00
  0.00000000E+00  0.00000000E+00  0.00000000E+00
  0.00000000E+00  0.00000000E+00  0.00000000E+00
  0.00000000E+00  0.00000000E+00  0.00000000E+00
  0.00000000E+00  0.00000000E+00  0.00000000E+00
  0.00000000E+00  0.00000000E+00  0.00000000E+00
