Calc_11_MAPbI3-cubic                    
   1.01200000000000     
     6.2873896523747801   -0.0000141642002346    0.2847558146135245
    -0.0000124995876784    6.3426152437517027    0.0000150446731449
     0.2865225316856160    0.0000183297426000    6.3119297174137046
   C    As   H    Pb   I 
     1     1     6     1     3
Selective dynamics
Direct
  0.8952946409733740 -0.0000753098744883  0.8989434145917956   T   T   T
  0.0982273199183258  0.9999514871451456  0.1050025481490032   T   T   T
  0.9822200748674055  0.9999575216816999  0.7429426621805962   T   T   T
  0.7983844814986735  0.1407552204051276  0.9226259529450604   T   T   T
  0.7983347693558686  0.8591352631446975  0.9226098126327263   T   T   T
  0.2371706767496092  0.1927795159836480  0.0806884492910340   T   T   T
  0.2371790277898494  0.8071403925051035  0.0806995065296830   T   T   T
  0.9821450977732251  0.9999614228869139  0.3207871120246127   T   T   T
  0.5047134500042693  0.4999545172984088  0.5148570061992982   T   T   T
  0.5134084157057413  0.5000258048683068  0.0128220281133213   T   T   T
  0.4770144348159717  0.9999657851889523  0.5133515634394534   T   T   T
 -0.0016753164408383  0.4999445388589543  0.4910397050093821   T   T   T
 
  0.00000000E+00  0.00000000E+00  0.00000000E+00
  0.00000000E+00  0.00000000E+00  0.00000000E+00
  0.00000000E+00  0.00000000E+00  0.00000000E+00
  0.00000000E+00  0.00000000E+00  0.00000000E+00
  0.00000000E+00  0.00000000E+00  0.00000000E+00
  0.00000000E+00  0.00000000E+00  0.00000000E+00
  0.00000000E+00  0.00000000E+00  0.00000000E+00
  0.00000000E+00  0.00000000E+00  0.00000000E+00
  0.00000000E+00  0.00000000E+00  0.00000000E+00
  0.00000000E+00  0.00000000E+00  0.00000000E+00
  0.00000000E+00  0.00000000E+00  0.00000000E+00
  0.00000000E+00  0.00000000E+00  0.00000000E+00
