Calc_7_MAPbI3-cubic                     
   1.01200000000000     
     6.2082297761825993    0.0127769488204060    0.0000000000000000
     0.0103521739798381    6.2701979112147423    0.0000000000000000
     0.0000000000000000    0.0000000000000000    6.2790048777149750
   P    H    Pb   I 
     1     4     1     3
Selective dynamics
Direct
  0.9934768382981194  0.0010445061060779  0.0000000000000000   T   T   T
  0.1322872762094769  0.8239457483257079  0.0000000000000000   T   T   T
  0.8615778507418060  0.9979616732949621  0.8179028750483168   T   T   T
  0.8615778507418060  0.9979616732949621  0.1820971249516830   T   T   T
  0.1194035414670214  0.1858302980923855  0.0000000000000000   T   T   T
  0.5092110344357980  0.5053883975678789  0.5000000000000000   T   T   T
  0.4912230707783135  0.5047657203524847  0.0000000000000000   T   T   T
  0.5254705802304319  0.0039449071581159  0.5000000000000000   T   T   T
  0.0087156872317098  0.4996977546725219  0.5000000000000000   T   T   T
 
  0.00000000E+00  0.00000000E+00  0.00000000E+00
  0.00000000E+00  0.00000000E+00  0.00000000E+00
  0.00000000E+00  0.00000000E+00  0.00000000E+00
  0.00000000E+00  0.00000000E+00  0.00000000E+00
  0.00000000E+00  0.00000000E+00  0.00000000E+00
  0.00000000E+00  0.00000000E+00  0.00000000E+00
  0.00000000E+00  0.00000000E+00  0.00000000E+00
  0.00000000E+00  0.00000000E+00  0.00000000E+00
  0.00000000E+00  0.00000000E+00  0.00000000E+00
