MAPbI3-cubic                            
   1.01200000000000     
     6.1005658786584229    0.0038726411529149    0.0000000000000000
     0.0015596888220714    6.1429503759836974    0.0000000000000000
     0.0000000000000000    0.0000000000000000    6.1431094433321096
   P    H    Pb   I 
     1     4     1     3
Selective dynamics
Direct
 -0.0002227893943666  0.0003157367839717  0.0000000000000000   T   T   T
  0.1408188063723216  0.8197788126725094  0.0000000000000000   T   T   T
  0.8668168806743559  0.9948306652034382  0.8139547706953981   T   T   T
  0.8668168806743559  0.9948306652034382  0.1860452293046019   T   T   T
  0.1250974333893835  0.1917781632188673  0.0000000000000000   T   T   T
  0.5000095708994542  0.4999943031210834  0.5000000000000000   T   T   T
  0.5002542265415540  0.4999260429150484  0.0000000000000000   T   T   T
  0.4997373853841883 -0.0001030648690519  0.5000000000000000   T   T   T
  0.0000077340995022  0.4997809827063845  0.5000000000000000   T   T   T
 
  0.00000000E+00  0.00000000E+00  0.00000000E+00
  0.00000000E+00  0.00000000E+00  0.00000000E+00
  0.00000000E+00  0.00000000E+00  0.00000000E+00
  0.00000000E+00  0.00000000E+00  0.00000000E+00
  0.00000000E+00  0.00000000E+00  0.00000000E+00
  0.00000000E+00  0.00000000E+00  0.00000000E+00
  0.00000000E+00  0.00000000E+00  0.00000000E+00
  0.00000000E+00  0.00000000E+00  0.00000000E+00
  0.00000000E+00  0.00000000E+00  0.00000000E+00
