Calc_6_MAPbI3-cubic                     
   1.01200000000000     
     5.5877926491252534    0.0333269941513554    0.0000000000000000
     0.0311776626992652    5.6515809504441714    0.0000000000000000
     0.0000000000000000    0.0000000000000000    5.6594798655275529
   N    H    Pb   I 
     1     4     1     3
Selective dynamics
Direct
  0.9966050338034346  0.0116930092044448  0.0000000000000000   T   T   T
  0.1134109232847770  0.8689388075512666  0.0000000000000000   T   T   T
  0.8906704070037202  0.0065769029663171  0.8517336021789135   T   T   T
  0.8906704070037202  0.0065769029663171  0.1482663978210867   T   T   T
  0.0925591618491246  0.1650018640971007  0.0000000000000000   T   T   T
  0.5103368719425101  0.4964039709482771  0.5000000000000000   T   T   T
  0.4334703184910069  0.5440632798100412  0.0000000000000000   T   T   T
  0.5643069138584621  0.9914757239526162  0.5000000000000000   T   T   T
  0.0109136928977345  0.4298102173687154  0.5000000000000000   T   T   T
 
  0.00000000E+00  0.00000000E+00  0.00000000E+00
  0.00000000E+00  0.00000000E+00  0.00000000E+00
  0.00000000E+00  0.00000000E+00  0.00000000E+00
  0.00000000E+00  0.00000000E+00  0.00000000E+00
  0.00000000E+00  0.00000000E+00  0.00000000E+00
  0.00000000E+00  0.00000000E+00  0.00000000E+00
  0.00000000E+00  0.00000000E+00  0.00000000E+00
  0.00000000E+00  0.00000000E+00  0.00000000E+00
  0.00000000E+00  0.00000000E+00  0.00000000E+00
