MAPbI3-cubic                            
   1.01200000000000     
     6.1224389812556064    0.0308521313817325    0.0000000000000000
     0.0289490561925451    6.1953025235602821    0.0000000000000000
     0.0000000000000000    0.0000000000000000    6.1945721755259981
   Sb   H    Pb   I 
     1     4     1     3
Selective dynamics
Direct
  0.0006689282712140  0.9992104718839809  0.0000000000000000   T   T   T
  0.1787710627064238  0.7893776348954251  0.0000000000000000   T   T   T
  0.8383902495366096  0.9921739810195206  0.7805727830538716   T   T   T
  0.8383902495366096  0.9921739810195206  0.2194272169461307   T   T   T
  0.1462252664963622  0.2278397406291217  0.0000000000000000   T   T   T
  0.5002791425478946  0.4984685328229716  0.5000000000000000   T   T   T
  0.5267444419198581  0.5021302216632189  0.0000000000000000   T   T   T
  0.4745159199787029  0.9991446546572595  0.5000000000000000   T   T   T
  1.0004000559322725  0.4995405237563944  0.5000000000000000   T   T   T
 
  0.00000000E+00  0.00000000E+00  0.00000000E+00
  0.00000000E+00  0.00000000E+00  0.00000000E+00
  0.00000000E+00  0.00000000E+00  0.00000000E+00
  0.00000000E+00  0.00000000E+00  0.00000000E+00
  0.00000000E+00  0.00000000E+00  0.00000000E+00
  0.00000000E+00  0.00000000E+00  0.00000000E+00
  0.00000000E+00  0.00000000E+00  0.00000000E+00
  0.00000000E+00  0.00000000E+00  0.00000000E+00
  0.00000000E+00  0.00000000E+00  0.00000000E+00
