MAPbI3-cubic                            
   1.01200000000000     
     6.2777964445787209   -0.0001064991729541    0.2702931480008314
    -0.0001095184490159    6.3298492296717415    0.0001617372153493
     0.2733175355791234    0.0001623270747175    6.2773740752659704
   C    As   H    Pb   I 
     1     1     6     1     3
Selective dynamics
Direct
  0.8802326793813897  0.0000601028866335  0.9201988345494378   T   T   T
  0.0929336686063454  0.0000708701914731  0.1183094305547101   T   T   T
  0.9603007108353222  0.0000530842344628  0.7606562758410219   T   T   T
  0.7836890277684605  0.1409452006959462  0.9469578308054210   T   T   T
  0.7836834309893504  0.8591651568893487  0.9469804634899911   T   T   T
  0.2310178764943570  0.1933092497122580  0.0874848862599049   T   T   T
  0.2309932879282492  0.8068067590975524  0.0874977202646396   T   T   T
  0.9871345767936454  0.0000492499732324  0.3390654860489137   T   T   T
  0.5028312903787149  0.5000896242558356  0.5110256497313803   T   T   T
  0.4992439072533421  0.5000455643396806  0.0081658159401644   T   T   T
  0.4925546864773437  1.0000504171732483  0.5065542875326816   T   T   T
  0.9974384449808158  0.5000148116977376  0.5021847115683481   T   T   T
 
  0.00000000E+00  0.00000000E+00  0.00000000E+00
  0.00000000E+00  0.00000000E+00  0.00000000E+00
  0.00000000E+00  0.00000000E+00  0.00000000E+00
  0.00000000E+00  0.00000000E+00  0.00000000E+00
  0.00000000E+00  0.00000000E+00  0.00000000E+00
  0.00000000E+00  0.00000000E+00  0.00000000E+00
  0.00000000E+00  0.00000000E+00  0.00000000E+00
  0.00000000E+00  0.00000000E+00  0.00000000E+00
  0.00000000E+00  0.00000000E+00  0.00000000E+00
  0.00000000E+00  0.00000000E+00  0.00000000E+00
  0.00000000E+00  0.00000000E+00  0.00000000E+00
  0.00000000E+00  0.00000000E+00  0.00000000E+00
