Calc_7_MAPbI3-cubic                     
   1.01200000000000     
     6.2768524297541823    0.0006337464045531    0.0000000000000000
    -0.0018940258275981    6.3034032858344435    0.0000000000000000
     0.0000000000000000    0.0000000000000000    6.3201121265788673
   P    H    Pb   I 
     1     4     1     3
Selective dynamics
Direct
  0.9919985437111922 -0.0001751054756633  0.0000000000000000   T   T   T
  0.1302385586666278  0.8244561750836641  0.0000000000000000   T   T   T
  0.8618688735017073  0.9958552137886120  0.8185226270181301   T   T   T
  0.8618688735017073  0.9958552137886120  0.1814773729818700   T   T   T
  0.1155764678883078  0.1850810371993235  0.0000000000000000   T   T   T
  0.5065319971689487  0.5011593507372432  0.5000000000000000   T   T   T
  0.4769886192314602  0.5114653768291274  0.0000000000000000   T   T   T
  0.5485770034569589  0.0036247047912335  0.5000000000000000   T   T   T
  0.0092947930075723  0.5032187121229438  0.5000000000000000   T   T   T
 
  0.00000000E+00  0.00000000E+00  0.00000000E+00
  0.00000000E+00  0.00000000E+00  0.00000000E+00
  0.00000000E+00  0.00000000E+00  0.00000000E+00
  0.00000000E+00  0.00000000E+00  0.00000000E+00
  0.00000000E+00  0.00000000E+00  0.00000000E+00
  0.00000000E+00  0.00000000E+00  0.00000000E+00
  0.00000000E+00  0.00000000E+00  0.00000000E+00
  0.00000000E+00  0.00000000E+00  0.00000000E+00
  0.00000000E+00  0.00000000E+00  0.00000000E+00
