Calc1_MAPbI3-cubic                      
   1.01200000000000     
     6.1607062147383598    0.0004024441318882    0.0000000000000000
    -0.0031592574424769    6.2383856789230396    0.0000000000000000
     0.0000000000000000    0.0000000000000000    6.2445759242024250
   Sb   H    Pb   I 
     1     4     1     3
Selective dynamics
Direct
  0.0017552948927801  0.0025837890705182  0.0000000000000000   T   T   T
  0.1624851319086691  0.7850890463322726  0.0000000000000000   T   T   T
  0.8401352798177014  0.0022742797022877  0.7835188655955065   T   T   T
  0.8401352798177014  0.0022742797022877  0.2164811344044933   T   T   T
  0.1620239677766235  0.2205485673407194  0.0000000000000000   T   T   T
  0.4991869623405387  0.5013530651410704  0.5000000000000000   T   T   T
  0.5198421830431034  0.5019148154922609  0.0000000000000000   T   T   T
  0.4781112143902269  0.0018669849667786  0.5000000000000000   T   T   T
  0.9992684161471451  0.5026358511169225  0.5000000000000000   T   T   T
 
  0.00000000E+00  0.00000000E+00  0.00000000E+00
  0.00000000E+00  0.00000000E+00  0.00000000E+00
  0.00000000E+00  0.00000000E+00  0.00000000E+00
  0.00000000E+00  0.00000000E+00  0.00000000E+00
  0.00000000E+00  0.00000000E+00  0.00000000E+00
  0.00000000E+00  0.00000000E+00  0.00000000E+00
  0.00000000E+00  0.00000000E+00  0.00000000E+00
  0.00000000E+00  0.00000000E+00  0.00000000E+00
  0.00000000E+00  0.00000000E+00  0.00000000E+00
