Calc_4_MAPbI3-cubic                     
   1.01200000000000     
     6.2721505926216325   -0.0007134929897023    0.5217433644822386
    -0.0007035823330870    6.0908755150875944   -0.0001071170047559
     0.5166854291241876   -0.0001381390613861    6.3176118415503213
   K    Pb   I 
     1     1     3
Selective dynamics
Direct
  0.1272229591667689 -0.0000888859653787  0.0833074544655819   T   T   T
  0.4283847425174896  0.4999892797243241  0.4667500244707078   T   T   T
  0.4667095741457641  0.5001304313255212  0.9628717563570947   T   T   T
  0.3428828553667113 -0.0000115362290169  0.5430225739764958   T   T   T
  0.9191474495260533  0.4998555754408102  0.3610727855073084   T   T   T
 
  0.00000000E+00  0.00000000E+00  0.00000000E+00
  0.00000000E+00  0.00000000E+00  0.00000000E+00
  0.00000000E+00  0.00000000E+00  0.00000000E+00
  0.00000000E+00  0.00000000E+00  0.00000000E+00
  0.00000000E+00  0.00000000E+00  0.00000000E+00
