Calc_10_MAPbI3-cubic                    
   1.01200000000000     
     6.3274780940670796   -0.0001571965139579    0.1941085743338643
    -0.0001399088238505    6.3613937235786118   -0.0002858457414006
     0.1949201786218993   -0.0002818727713612    6.3421130199639526
   C    P    H    Pb   I 
     1     1     6     1     3
Selective dynamics
Direct
  0.8990952853767957  0.0000814643956719  0.9351623582762055   T   T   T
  0.1003678272632533  0.0000016461217069  0.1170474157377755   T   T   T
  0.9725565548480770  0.0001114734770524  0.7762066972070264   T   T   T
  0.8019270448762036  0.1397123916326102  0.9592971804008084   T   T   T
  0.8018403173346472  0.8604578855836751  0.9591967230972913   T   T   T
  0.2294232832797731  0.1781126024581715  0.0881805292181881   T   T   T
  0.2293393572542160  0.8217913156600262  0.0880904376575623   T   T   T
  0.0119942571614758  0.9999553817780277  0.3229432664183064   T   T   T
  0.5000000000000000  0.5000000000000000  0.5000000000000000   F   F   F
  0.5000000000000000  0.5000000000000000  0.0000000000000000   F   F   F
  0.5000000000000000  0.0000000000000000  0.5000000000000000   F   F   F
  0.0000000000000000  0.5000000000000000  0.5000000000000000   F   F   F
 
  0.00000000E+00  0.00000000E+00  0.00000000E+00
  0.00000000E+00  0.00000000E+00  0.00000000E+00
  0.00000000E+00  0.00000000E+00  0.00000000E+00
  0.00000000E+00  0.00000000E+00  0.00000000E+00
  0.00000000E+00  0.00000000E+00  0.00000000E+00
  0.00000000E+00  0.00000000E+00  0.00000000E+00
  0.00000000E+00  0.00000000E+00  0.00000000E+00
  0.00000000E+00  0.00000000E+00  0.00000000E+00
  0.00000000E+00  0.00000000E+00  0.00000000E+00
  0.00000000E+00  0.00000000E+00  0.00000000E+00
  0.00000000E+00  0.00000000E+00  0.00000000E+00
  0.00000000E+00  0.00000000E+00  0.00000000E+00
