Calc_5_MAPbI3-cubic                     
   1.01200000000000     
     6.7319096845833073    0.0001890211214043    0.2967840644342483
     0.0003189842868498    6.1707568501997514   -0.0006522156635515
     0.3027974077686964   -0.0006140205594906    6.2823099327579905
   Na   Pb   I 
     1     1     3
Selective dynamics
Direct
  0.2203129579496867  0.0000107870714522  0.0306537290559126   T   T   T
  0.4588555388094950  0.4999824718391968  0.4768502717408372   T   T   T
  0.3740244518214256  0.5000493373999292  0.9805036381213335   T   T   T
  0.3392462118439272  0.9999857003344738  0.5107486922107211   T   T   T
  0.8919084202982535  0.4998465676512073  0.4182682636483845   T   T   T
 
  0.00000000E+00  0.00000000E+00  0.00000000E+00
  0.00000000E+00  0.00000000E+00  0.00000000E+00
  0.00000000E+00  0.00000000E+00  0.00000000E+00
  0.00000000E+00  0.00000000E+00  0.00000000E+00
  0.00000000E+00  0.00000000E+00  0.00000000E+00
