Calc_11_MAPbI3-cubic                    
   1.01200000000000     
     6.2968981023759749   -0.0001479511944142    0.2679637457144558
    -0.0001408967203247    6.3408061430141833   -0.0001473608329212
     0.2696867039581485   -0.0001473029064357    6.3124189700416586
   C    As   H    Pb   I 
     1     1     6     1     3
Selective dynamics
Direct
  0.8902527038808098 -0.0000515440357930  0.8992418744325270   T   T   T
  0.0949982239012265 -0.0000372999999607  0.1039368717191598   T   T   T
  0.9763072097746470 -0.0000225492001976  0.7436173148252185   T   T   T
  0.7936160741644289  0.1406521435397199  0.9218297186463416   T   T   T
  0.7935947218152073  0.8592921594652911  0.9218217610119928   T   T   T
  0.2337788146120046  0.1923604095584425  0.0768825251863210   T   T   T
  0.2337427535750942  0.8075794203924697  0.0768572727053507   T   T   T
  0.9833964760208468 -0.0000383532721290  0.3209127859117856   T   T   T
  0.5000000000000000  0.5000000000000000  0.5000000000000000   F   F   F
  0.5000000000000000  0.5000000000000000  0.0000000000000000   F   F   F
  0.5000000000000000  0.0000000000000000  0.5000000000000000   F   F   F
  0.0000000000000000  0.5000000000000000  0.5000000000000000   F   F   F
 
  0.00000000E+00  0.00000000E+00  0.00000000E+00
  0.00000000E+00  0.00000000E+00  0.00000000E+00
  0.00000000E+00  0.00000000E+00  0.00000000E+00
  0.00000000E+00  0.00000000E+00  0.00000000E+00
  0.00000000E+00  0.00000000E+00  0.00000000E+00
  0.00000000E+00  0.00000000E+00  0.00000000E+00
  0.00000000E+00  0.00000000E+00  0.00000000E+00
  0.00000000E+00  0.00000000E+00  0.00000000E+00
  0.00000000E+00  0.00000000E+00  0.00000000E+00
  0.00000000E+00  0.00000000E+00  0.00000000E+00
  0.00000000E+00  0.00000000E+00  0.00000000E+00
  0.00000000E+00  0.00000000E+00  0.00000000E+00
