Calc_11_MAPbI3-cubic                    
   1.01200000000000     
     6.2873896523747801   -0.0000141642002346    0.2847558146135245
    -0.0000124995876784    6.3426152437517027    0.0000150446731449
     0.2865225316856160    0.0000183297426000    6.3119297174137046
   C    As   H    Pb   I 
     1     1     6     1     3
Selective dynamics
Direct
  0.8959228339271149 -0.0000239522468221  0.9010829598842982   T   T   T
  0.0986368854370567 -0.0000479506292963  0.1068974778359118   T   T   T
  0.9826192333656083 -0.0000139843358273  0.7452838471940729   T   T   T
  0.7989877359995018  0.1405436858026987  0.9242728651359621   T   T   T
  0.7990996450328628  0.8593524940913512  0.9242072910303826   T   T   T
  0.2368674415636981  0.1928327519000717  0.0812465511631431   T   T   T
  0.2368407177401001  0.8071019334330752  0.0813211637483421   T   T   T
  0.9823402594705437 -0.0000863641715537  0.3221885551613531   T   T   T
  0.5008572474363967  0.4998784073581385  0.5098301896136281   T   T   T
  0.5109010702862686  0.4999542121986285  0.0096981398747917   T   T   T
  0.4810782507759961  0.0000366984064129  0.5093300144778787   T   T   T
 -0.0017342480236724  0.4999682282855926  0.4910107059862010   T   T   T
 
  0.00000000E+00  0.00000000E+00  0.00000000E+00
  0.00000000E+00  0.00000000E+00  0.00000000E+00
  0.00000000E+00  0.00000000E+00  0.00000000E+00
  0.00000000E+00  0.00000000E+00  0.00000000E+00
  0.00000000E+00  0.00000000E+00  0.00000000E+00
  0.00000000E+00  0.00000000E+00  0.00000000E+00
  0.00000000E+00  0.00000000E+00  0.00000000E+00
  0.00000000E+00  0.00000000E+00  0.00000000E+00
  0.00000000E+00  0.00000000E+00  0.00000000E+00
  0.00000000E+00  0.00000000E+00  0.00000000E+00
  0.00000000E+00  0.00000000E+00  0.00000000E+00
  0.00000000E+00  0.00000000E+00  0.00000000E+00
