Calc_12_MAPbI3-cubic                    
   1.01200000000000     
     6.2492260496265928   -0.0000335623640147    0.0432150051302574
    -0.0000319685592132    6.2187941543208671   -0.0000052567870445
     0.0428903522318639   -0.0000054129811571    6.2964747345935734
   C    N    H    Pb   I 
     1     1     6     1     3
Selective dynamics
Direct
  0.9076474076732012  0.9999685243704911  0.9790774772951667   T   T   T
  0.1350873989910145  0.9998846268389713  0.0376289131852261   T   T   T
  0.8970399010722074  0.9998630069749649  0.8077954587835431   T   T   T
  0.8329962208265342  0.1429071431865990  0.0443117623587662   T   T   T
  0.8328556142678643  0.8571798561827677  0.0444905950312090   T   T   T
  0.2140894637103619  0.1333735971467338  0.9806396013942040   T   T   T
  0.2139771448279310  0.8663091721954717  0.9807579190935186   T   T   T
  0.1564060319141523  0.9999556346615284  0.1991894636485882   T   T   T
  0.4699798220520034  0.4999509107011171  0.4807954748944642   T   T   T
  0.4312318746302583  0.4999424723018554  0.9779839230426945   T   T   T
  0.4312709538406304  0.9999659177449800  0.5159832415900002   T   T   T
  0.9553995541937892  0.5000015846944790  0.4471339096825841   T   T   T
 
  0.00000000E+00  0.00000000E+00  0.00000000E+00
  0.00000000E+00  0.00000000E+00  0.00000000E+00
  0.00000000E+00  0.00000000E+00  0.00000000E+00
  0.00000000E+00  0.00000000E+00  0.00000000E+00
  0.00000000E+00  0.00000000E+00  0.00000000E+00
  0.00000000E+00  0.00000000E+00  0.00000000E+00
  0.00000000E+00  0.00000000E+00  0.00000000E+00
  0.00000000E+00  0.00000000E+00  0.00000000E+00
  0.00000000E+00  0.00000000E+00  0.00000000E+00
  0.00000000E+00  0.00000000E+00  0.00000000E+00
  0.00000000E+00  0.00000000E+00  0.00000000E+00
  0.00000000E+00  0.00000000E+00  0.00000000E+00
