Calc_6_MAPbI3-cubic                     
   1.01200000000000     
     6.2591955697410011    0.5342177221443697    0.0000000000000000
     0.5225311788281680    6.3431536604371299    0.0000000000000000
     0.0000000000000000    0.0000000000000000    6.1262038338305631
   N    H    Pb   I 
     1     4     1     3
Selective dynamics
Direct
  0.9650694885834173 -0.0000980661459307  0.0000000000000000   T   T   T
  0.0967652969172082  0.8787291551503398  0.0000000000000000   T   T   T
  0.8735358115365640  0.9896907565428726  0.8617601921159538   T   T   T
  0.8735358115365640  0.9896907565428726  0.1382398078840467   T   T   T
  0.0176102790218144  0.1426920446365469  0.0000000000000000   T   T   T
  0.5405043984540985  0.5047568458131464  0.5000000000000000   T   T   T
  0.4505731736853976  0.5998090970294006  0.0000000000000000   T   T   T
  0.6408889830207657 -0.0005351141104733  0.5000000000000000   T   T   T
  0.0444604873786526  0.4158052034063148  0.5000000000000000   T   T   T
 
  0.00000000E+00  0.00000000E+00  0.00000000E+00
  0.00000000E+00  0.00000000E+00  0.00000000E+00
  0.00000000E+00  0.00000000E+00  0.00000000E+00
  0.00000000E+00  0.00000000E+00  0.00000000E+00
  0.00000000E+00  0.00000000E+00  0.00000000E+00
  0.00000000E+00  0.00000000E+00  0.00000000E+00
  0.00000000E+00  0.00000000E+00  0.00000000E+00
  0.00000000E+00  0.00000000E+00  0.00000000E+00
  0.00000000E+00  0.00000000E+00  0.00000000E+00
