Calc_7_MAPbI3-cubic                     
   1.01200000000000     
     6.1276784259369688   -0.0300133305905435    0.0000000000000000
    -0.0320142401564273    6.1673156183067643    0.0000000000000000
     0.0000000000000000    0.0000000000000000    6.1786952343522623
   P    H    Pb   I 
     1     4     1     3
Selective dynamics
Direct
  0.9960478542110661  0.0000359938599111  0.0000000000000000   T   T   T
  0.1338744059919729  0.8199722913785996  0.0000000000000000   T   T   T
  0.8628962410938710  0.9963757713709430  0.8155193046219120   T   T   T
  0.8628962410938710  0.9963757713709430  0.1844806953780882   T   T   T
  0.1249494528772774  0.1887912105127409  0.0000000000000000   T   T   T
  0.5055730408158765  0.4986836170101897  0.5000000000000000   T   T   T
  0.4953411809847788  0.5111842828660216  0.0000000000000000   T   T   T
  0.5159591234402654  0.0011618372957387  0.5000000000000000   T   T   T
  0.0054061896255034  0.5079599032000083  0.5000000000000000   T   T   T
 
  0.00000000E+00  0.00000000E+00  0.00000000E+00
  0.00000000E+00  0.00000000E+00  0.00000000E+00
  0.00000000E+00  0.00000000E+00  0.00000000E+00
  0.00000000E+00  0.00000000E+00  0.00000000E+00
  0.00000000E+00  0.00000000E+00  0.00000000E+00
  0.00000000E+00  0.00000000E+00  0.00000000E+00
  0.00000000E+00  0.00000000E+00  0.00000000E+00
  0.00000000E+00  0.00000000E+00  0.00000000E+00
  0.00000000E+00  0.00000000E+00  0.00000000E+00
