Calc_6_MAPbI3-cubic                     
   1.01200000000000     
     6.2394477765572267    0.0384939862479191    0.0000000000000000
     0.0364951866688020    6.2455260680138016    0.0000000000000000
     0.0000000000000000    0.0000000000000000    6.1798152722424708
   N    H    Pb   I 
     1     4     1     3
Selective dynamics
Direct
  0.9320742453619356  0.9984147178357996  0.0000000000000000   T   T   T
  0.0241536506848331  0.8627313428505031  0.0000000000000000   T   T   T
  0.8369494541875735  1.0001163776226851  0.8628587218531455   T   T   T
  0.8369494541875735  1.0001163776226851  0.1371412781468473   T   T   T
  0.0256370390625359  0.1308404107020041  0.0000000000000000   T   T   T
  0.5679214978747340  0.5083912546976294  0.5000000000000000   T   T   T
  0.5783910295994039  0.5072012318623976  0.0000000000000000   T   T   T
  0.6243356550094664  0.0078606736924801  0.5000000000000000   T   T   T
  0.0765317041664349  0.5048682919789257  0.5000000000000000   T   T   T
 
  0.00000000E+00  0.00000000E+00  0.00000000E+00
  0.00000000E+00  0.00000000E+00  0.00000000E+00
  0.00000000E+00  0.00000000E+00  0.00000000E+00
  0.00000000E+00  0.00000000E+00  0.00000000E+00
  0.00000000E+00  0.00000000E+00  0.00000000E+00
  0.00000000E+00  0.00000000E+00  0.00000000E+00
  0.00000000E+00  0.00000000E+00  0.00000000E+00
  0.00000000E+00  0.00000000E+00  0.00000000E+00
  0.00000000E+00  0.00000000E+00  0.00000000E+00
