MAPbI3-cubic                            
   1.01200000000000     
     6.4497356769417351    0.0002109580448702    0.2442807590106140
     0.0002164878909535    6.5232857389942529    0.0000505604139461
     0.2470453476203868    0.0000212797634406    6.4209279488532536
   C    Sb   H    Pb   I 
     1     1     6     1     3
Selective dynamics
Direct
  0.8616105349343127  0.0000459933088557  0.9264681450472040   T   T   T
  0.0964241898528848  0.0000552945948800  0.1347742430454503   T   T   T
  0.9354159077615815  0.0000408457029180  0.7695419073010032   T   T   T
  0.7685992247680032  0.1369184174063462  0.9543999363901121   T   T   T
  0.7686148793071294  0.8631752710483001  0.9544053122519958   T   T   T
  0.2428751113483528  0.2123601724230003  0.0904781735647633   T   T   T
  0.2429254016223767  0.7877544652526005  0.0905284993533195   T   T   T
  0.9794501638717087  0.0000990382529415  0.3751723271953028   T   T   T
  0.5021436971580305  0.4999252686199877  0.5109643441636154   T   T   T
  0.5134176717337352  0.5000518340859199  0.0104006164905594   T   T   T
  0.4875857887805405  0.0000569009637920  0.5063368979304320   T   T   T
  0.0031807814136002  0.5000717239152314  0.5022699541393526   T   T   T
 
  0.00000000E+00  0.00000000E+00  0.00000000E+00
  0.00000000E+00  0.00000000E+00  0.00000000E+00
  0.00000000E+00  0.00000000E+00  0.00000000E+00
  0.00000000E+00  0.00000000E+00  0.00000000E+00
  0.00000000E+00  0.00000000E+00  0.00000000E+00
  0.00000000E+00  0.00000000E+00  0.00000000E+00
  0.00000000E+00  0.00000000E+00  0.00000000E+00
  0.00000000E+00  0.00000000E+00  0.00000000E+00
  0.00000000E+00  0.00000000E+00  0.00000000E+00
  0.00000000E+00  0.00000000E+00  0.00000000E+00
  0.00000000E+00  0.00000000E+00  0.00000000E+00
  0.00000000E+00  0.00000000E+00  0.00000000E+00
