Calc1_MAPbI3-cubic                      
   1.01200000000000     
     6.1658919946793853    0.0056616849110756    0.0000000000000000
     0.0021489085711311    6.2257859145391032    0.0000000000000000
     0.0000000000000000    0.0000000000000000    6.2245981549255660
   Sb   H    Pb   I 
     1     4     1     3
Selective dynamics
Direct
  0.0021147005057518  0.0023824419408188  0.0000000000000000   T   T   T
  0.1611583964409729  0.7843305877892951  0.0000000000000000   T   T   T
  0.8426081581772369  0.0025529681051504  0.7826069666047104   T   T   T
  0.8426081581772369  0.0025529681051504  0.2173930333952966   T   T   T
  0.1609380429215056  0.2200151133374867  0.0000000000000000   T   T   T
  0.4986784595569221  0.5022407669277592  0.5000000000000000   T   T   T
  0.5419627820322350  0.5025400660462761  0.0000000000000000   T   T   T
  0.4541976574085138  0.0022353901876751  0.5000000000000000   T   T   T
  0.9986773749141299  0.5016903764255126  0.5000000000000000   T   T   T
 
  0.00000000E+00  0.00000000E+00  0.00000000E+00
  0.00000000E+00  0.00000000E+00  0.00000000E+00
  0.00000000E+00  0.00000000E+00  0.00000000E+00
  0.00000000E+00  0.00000000E+00  0.00000000E+00
  0.00000000E+00  0.00000000E+00  0.00000000E+00
  0.00000000E+00  0.00000000E+00  0.00000000E+00
  0.00000000E+00  0.00000000E+00  0.00000000E+00
  0.00000000E+00  0.00000000E+00  0.00000000E+00
  0.00000000E+00  0.00000000E+00  0.00000000E+00
