MAPbI3-cubic                            
   1.01200000000000     
     6.2018175609393875    0.0369891924342533    0.0000000000000000
     0.0346036777273074    6.2726153575190606    0.0000000000000000
     0.0000000000000000    0.0000000000000000    6.2813822594698960
   As   H    Pb   I 
     1     4     1     3
Selective dynamics
Direct
 -0.0051672379428895  0.0049220486513478  0.0000000000000000   T   T   T
  0.1707468846571826  0.7972603818005719  0.0000000000000000   T   T   T
  0.8356382940904324  0.9959861548213690  0.7819826908423854   T   T   T
  0.8356382940904324  0.9959861548213690  0.2180173091576149   T   T   T
  0.1396507082357772  0.2304836364624380  0.0000000000000000   T   T   T
  0.5041556271851600  0.4884215839056433  0.5000000000000000   T   T   T
  0.5414364053457101  0.5116841171526636  0.0000000000000000   T   T   T
  0.4756545332607998  0.9935843894052746  0.5000000000000000   T   T   T
  0.0051902212118778  0.5022122118444328  0.5000000000000000   T   T   T
 
  0.00000000E+00  0.00000000E+00  0.00000000E+00
  0.00000000E+00  0.00000000E+00  0.00000000E+00
  0.00000000E+00  0.00000000E+00  0.00000000E+00
  0.00000000E+00  0.00000000E+00  0.00000000E+00
  0.00000000E+00  0.00000000E+00  0.00000000E+00
  0.00000000E+00  0.00000000E+00  0.00000000E+00
  0.00000000E+00  0.00000000E+00  0.00000000E+00
  0.00000000E+00  0.00000000E+00  0.00000000E+00
  0.00000000E+00  0.00000000E+00  0.00000000E+00
