MAPbI3-cubic                            
   1.01200000000000     
     6.1108937491575750    0.0036680780196681    0.0000000000000000
     0.0013456954424218    6.0872424987965941    0.0000000000000000
     0.0000000000000000    0.0000000000000000    6.0891418619154862
   P    H    Pb   I 
     1     4     1     3
Selective dynamics
Direct
  0.0000611280143111  0.0017641110393529  0.0000000000000000   T   T   T
  0.1401396850187357  0.8186497657042885  0.0000000000000000   T   T   T
  0.8659128473968895  0.9968573205431840  0.8127934946382996   T   T   T
  0.8659128473968895  0.9968573205431840  0.1872065053616976   T   T   T
  0.1273138322614687  0.1937232871308026  0.0000000000000000   T   T   T
  0.5000070956102278  0.4986349957288401  0.5000000000000000   T   T   T
  0.4766227659321113  0.4987950078415353  0.0000000000000000   T   T   T
  0.5235330741954114 -0.0014528085255745  0.5000000000000000   T   T   T
 -0.0000597605155317  0.4975183898946081  0.5000000000000000   T   T   T
 
  0.00000000E+00  0.00000000E+00  0.00000000E+00
  0.00000000E+00  0.00000000E+00  0.00000000E+00
  0.00000000E+00  0.00000000E+00  0.00000000E+00
  0.00000000E+00  0.00000000E+00  0.00000000E+00
  0.00000000E+00  0.00000000E+00  0.00000000E+00
  0.00000000E+00  0.00000000E+00  0.00000000E+00
  0.00000000E+00  0.00000000E+00  0.00000000E+00
  0.00000000E+00  0.00000000E+00  0.00000000E+00
  0.00000000E+00  0.00000000E+00  0.00000000E+00
