Calc_12_MAPbI3-cubic                    
   1.01200000000000     
     6.2894772110659805   -0.0000140667877478    0.0536995040656500
    -0.0000122266603500    6.2570261742453948   -0.0000167767036641
     0.0534737141946934   -0.0000167449217157    6.3351954279002545
   C    N    H    Pb   I 
     1     1     6     1     3
Selective dynamics
Direct
  0.9088518229109497  0.9999703615443457  0.9789230671768591   T   T   T
  0.1342851694736372  0.9998936622121143  0.0383247214197863   T   T   T
  0.8997940424654822  0.9998608201685929  0.8085819292538736   T   T   T
  0.8339336213955300  0.1418797212391048  0.0432112406389567   T   T   T
  0.8337939662235092  0.8582038239358128  0.0433898909297237   T   T   T
  0.2132725084802135  0.1328007953871169  0.9824646688149394   T   T   T
  0.2131720716934551  0.8668897646948958  0.9825688195254964   T   T   T
  0.1548531895011140  0.9999556934190653  0.1989500059744445   T   T   T
  0.4675406556521278  0.4999551877137092  0.4804386508928558   T   T   T
  0.4287816588492875  0.4999457008204994  0.9775637676874499   T   T   T
  0.4383008782962121  0.9999605194436466  0.5028448101390808   T   T   T
  0.9514018030584257  0.4999863964210542  0.4585261675465023   T   T   T
 
  0.00000000E+00  0.00000000E+00  0.00000000E+00
  0.00000000E+00  0.00000000E+00  0.00000000E+00
  0.00000000E+00  0.00000000E+00  0.00000000E+00
  0.00000000E+00  0.00000000E+00  0.00000000E+00
  0.00000000E+00  0.00000000E+00  0.00000000E+00
  0.00000000E+00  0.00000000E+00  0.00000000E+00
  0.00000000E+00  0.00000000E+00  0.00000000E+00
  0.00000000E+00  0.00000000E+00  0.00000000E+00
  0.00000000E+00  0.00000000E+00  0.00000000E+00
  0.00000000E+00  0.00000000E+00  0.00000000E+00
  0.00000000E+00  0.00000000E+00  0.00000000E+00
  0.00000000E+00  0.00000000E+00  0.00000000E+00
