MAPbI3-cubic                            
   1.01200000000000     
     6.5337938352943157    0.0005226279007737    0.2155464312986605
     0.0005345996186568    6.5884294153883198   -0.0000239464635051
     0.2174948201742492   -0.0000403711008647    6.5322398872662104
   C    Sb   H    Pb   I 
     1     1     6     1     3
Selective dynamics
Direct
  0.8620413264900371  0.0000435380542790  0.9290903649333117   T   T   T
  0.0957014680441856  0.0000403596817385  0.1349168596193880   T   T   T
  0.9339210047420665  0.0000408637211288  0.7751107867346814   T   T   T
  0.7702130692868923  0.1356499320329148  0.9559742443307151   T   T   T
  0.7702348516038187  0.8644679440248788  0.9559641809085950   T   T   T
  0.2402436111414286  0.2101380224340527  0.0922301585831691   T   T   T
  0.2403550442643852  0.7899454408686872  0.0922916857227950   T   T   T
  0.9842941219044603  0.0001137925165738  0.3718299205315296   T   T   T
  0.5013332421438420  0.4999485939338787  0.5102833807600928   T   T   T
  0.5091345784478591  0.5000688053473421  0.0104918363525251   T   T   T
  0.4885031592109311  1.0000096919865356  0.5003000066920942   T   T   T
  0.0062678752723553  0.5000882409727680  0.4972569317042151   T   T   T
 
  0.00000000E+00  0.00000000E+00  0.00000000E+00
  0.00000000E+00  0.00000000E+00  0.00000000E+00
  0.00000000E+00  0.00000000E+00  0.00000000E+00
  0.00000000E+00  0.00000000E+00  0.00000000E+00
  0.00000000E+00  0.00000000E+00  0.00000000E+00
  0.00000000E+00  0.00000000E+00  0.00000000E+00
  0.00000000E+00  0.00000000E+00  0.00000000E+00
  0.00000000E+00  0.00000000E+00  0.00000000E+00
  0.00000000E+00  0.00000000E+00  0.00000000E+00
  0.00000000E+00  0.00000000E+00  0.00000000E+00
  0.00000000E+00  0.00000000E+00  0.00000000E+00
  0.00000000E+00  0.00000000E+00  0.00000000E+00
