Calc_7_MAPbI3-cubic                     
   1.01200000000000     
     6.1497316406969391    0.0020758701691426    0.0000000000000000
    -0.0003391129575684    6.2174570207102411    0.0000000000000000
     0.0000000000000000    0.0000000000000000    6.2145644587245501
   P    H    Pb   I 
     1     4     1     3
Selective dynamics
Direct
  0.9939223785193635  0.0012192798631742  0.0000000000000000   T   T   T
  0.1328309167900581  0.8224722867624816  0.0000000000000000   T   T   T
  0.8609555803777038  0.9974203600933088  0.8163096360728587   T   T   T
  0.8609555803777038  0.9974203600933088  0.1836903639271413   T   T   T
  0.1210941278973013  0.1880717766934747  0.0000000000000000   T   T   T
  0.5100618435424135  0.5053510105597661  0.5000000000000000   T   T   T
  0.5040280144069209  0.5049949058615714  0.0000000000000000   T   T   T
  0.5102073942148484  0.0039234880284229  0.5000000000000000   T   T   T
  0.0088878940081695  0.4996672109095873  0.5000000000000000   T   T   T
 
  0.00000000E+00  0.00000000E+00  0.00000000E+00
  0.00000000E+00  0.00000000E+00  0.00000000E+00
  0.00000000E+00  0.00000000E+00  0.00000000E+00
  0.00000000E+00  0.00000000E+00  0.00000000E+00
  0.00000000E+00  0.00000000E+00  0.00000000E+00
  0.00000000E+00  0.00000000E+00  0.00000000E+00
  0.00000000E+00  0.00000000E+00  0.00000000E+00
  0.00000000E+00  0.00000000E+00  0.00000000E+00
  0.00000000E+00  0.00000000E+00  0.00000000E+00
