Calc_10_MAPbI3-cubic                    
   1.01200000000000     
     6.2766890330805376   -0.0001481951212967    0.2275417376065607
    -0.0001328031726610    6.3191943390101546   -0.0000499937533220
     0.2285356649886160   -0.0000410604244175    6.2812113998738672
   C    P    H    Pb   I 
     1     1     6     1     3
Selective dynamics
Direct
  0.8978661009339550  0.0000874902114124  0.9333948341082621   T   T   T
  0.0974880097004654  0.9999924987572989  0.1188707487610539   T   T   T
  0.9746244769760768  0.0001115337204265  0.7730377736928732   T   T   T
  0.7995830173606120  0.1408528567164179  0.9572593537251061   T   T   T
  0.7995284852181063  0.8593004935403920  0.9571844195035494   T   T   T
  0.2278507153232808  0.1795235851659760  0.0911531508369875   T   T   T
  0.2277686316678354  0.8204419505218612  0.0910896993454343   T   T   T
  0.0045515109567718  0.9999658793379845  0.3265221354765501   T   T   T
  0.5028446904699022  0.4999977857960999  0.5050992788820968   T   T   T
  0.5050959064090126  0.5000151767779298  0.0034356333783070   T   T   T
  0.4902470749243033 -0.0000032475711519  0.5012404725215069   T   T   T
 -0.0000915891361654  0.4999814118665425  0.4947373270433681   T   T   T
 
  0.00000000E+00  0.00000000E+00  0.00000000E+00
  0.00000000E+00  0.00000000E+00  0.00000000E+00
  0.00000000E+00  0.00000000E+00  0.00000000E+00
  0.00000000E+00  0.00000000E+00  0.00000000E+00
  0.00000000E+00  0.00000000E+00  0.00000000E+00
  0.00000000E+00  0.00000000E+00  0.00000000E+00
  0.00000000E+00  0.00000000E+00  0.00000000E+00
  0.00000000E+00  0.00000000E+00  0.00000000E+00
  0.00000000E+00  0.00000000E+00  0.00000000E+00
  0.00000000E+00  0.00000000E+00  0.00000000E+00
  0.00000000E+00  0.00000000E+00  0.00000000E+00
  0.00000000E+00  0.00000000E+00  0.00000000E+00
