Calc_10_MAPbI3-cubic                    
   1.01200000000000     
     6.2713451254886072    0.0002534356060750    0.2187440095560406
     0.0002031461129039    6.3153060037878364    0.0004207791060062
     0.2196123438848700    0.0004183520069113    6.2691736055636627
   C    P    H    Pb   I 
     1     1     6     1     3
Selective dynamics
Direct
  0.8972134444705518  0.0000410064198140  0.9348996377621490  
  0.0977197318243452 -0.0000089056496785  0.1200756310553563  
  0.9738527156951828 -0.0001636148743561  0.7746024608188083  
  0.7991001988187054  0.1407949314155732  0.9587805078835913  
  0.7990777985286092  0.8593555367505334  0.9587970529325659  
  0.2277414063475797  0.1794215777017010  0.0912288929699778  
  0.2276689302918531  0.8204992804737762  0.0913071660620558  
  0.0053103031011173 -0.0001778582464311  0.3277667987749602  
  0.5000000000000000  0.5000000000000000  0.5000000000000000  
  0.5000000000000000  0.5000000000000000  0.0000000000000000   
  0.5000000000000000  0.0000000000000000  0.5000000000000000   
  0.0000000000000000  0.5000000000000000  0.5000000000000000   
