Calc_9_MAPbI3-cubic                     
   1.01200000000000     
     6.3166732097369769   -0.0011331624314434    0.3264825221740107
    -0.0010691975141115    6.4023970495443878   -0.0015232610947144
     0.3234701763047601   -0.0015499368726923    6.2751077988242852
   C    Sb   H    Pb   I 
     1     1     6     1     3
Selective dynamics
Direct
  0.8780867330468338  1.0000369391712740  0.8893872732634955   T   T   T
  0.0909629414066465  0.0000335908448214  0.1230926557613859   T   T   T
  0.9699039145643846  0.0000169382621370  0.7345974429327133   T   T   T
  0.7817465102003786  0.1393654772254066  0.9117710899045405   T   T   T
  0.7816275356094459  0.8607345456470913  0.9116697633219915   T   T   T
  0.2441399489554343  0.2148472982627032  0.0973194893494986   T   T   T
  0.2439297538183923  0.7851679426222962  0.0971721978888035   T   T   T
  0.9430371623539138  1.0000315001135567  0.3581001421469309   T   T   T
  0.4873956638432512  0.5000640648597293  0.5531023972032166   T   T   T
  0.5389545250872516  0.5000321982045202  0.0531264897173580   T   T   T
  0.4487045783345669  0.0000856806408531  0.5482911318426209   T   T   T
  0.9874261462459180  0.5000333221355973  0.5181384708165112   T   T   T
 
  0.00000000E+00  0.00000000E+00  0.00000000E+00
  0.00000000E+00  0.00000000E+00  0.00000000E+00
  0.00000000E+00  0.00000000E+00  0.00000000E+00
  0.00000000E+00  0.00000000E+00  0.00000000E+00
  0.00000000E+00  0.00000000E+00  0.00000000E+00
  0.00000000E+00  0.00000000E+00  0.00000000E+00
  0.00000000E+00  0.00000000E+00  0.00000000E+00
  0.00000000E+00  0.00000000E+00  0.00000000E+00
  0.00000000E+00  0.00000000E+00  0.00000000E+00
  0.00000000E+00  0.00000000E+00  0.00000000E+00
  0.00000000E+00  0.00000000E+00  0.00000000E+00
  0.00000000E+00  0.00000000E+00  0.00000000E+00
