MAPbI3-cubic                            
   1.01200000000000     
     6.4253816953101888    0.0000882892157701    0.1522272283380574
     0.0000869600798861    6.3059698737563954   -0.0000148561970046
     0.1524653383383939   -0.0000331941638353    6.3409598325662095
   Rb   Pb   I 
     1     1     3
Selective dynamics
Direct
  0.0748155328415596  0.0000419081325596  0.0309068902443893   T   T   T
  0.4565535618662286  0.4999363445589433  0.4771349132774567   T   T   T
  0.4133742065981568  0.5000187207797832  0.9737788689531406   T   T   T
  0.4067444835351455 -0.0000624788905968  0.4987412216462520   T   T   T
  0.9328597958816971  0.4999403697155703  0.4364627006559500   T   T   T
 
  0.00000000E+00  0.00000000E+00  0.00000000E+00
  0.00000000E+00  0.00000000E+00  0.00000000E+00
  0.00000000E+00  0.00000000E+00  0.00000000E+00
  0.00000000E+00  0.00000000E+00  0.00000000E+00
  0.00000000E+00  0.00000000E+00  0.00000000E+00
