Calc_6_MAPbI3-cubic                     
   1.01200000000000     
     6.1608581943478669    0.0367449005185444    0.0000000000000000
     0.0343751407367364    6.2311884130158264    0.0000000000000000
     0.0000000000000000    0.0000000000000000    6.2398974147225230
   N    H    Pb   I 
     1     4     1     3
Selective dynamics
Direct
  0.9333514983082384  0.9982655454156482  0.0000000000000000   T   T   T
  0.0269135476439689  0.8626514577365980  0.0000000000000000   T   T   T
  0.8371008290100539  0.9999113465194694  0.8643536720935102   T   T   T
  0.8371008290100539  0.9999113465194694  0.1356463279064825   T   T   T
  0.0279764139191788  0.1309297299668525  0.0000000000000000   T   T   T
  0.5700598574790843  0.5096864659899629  0.5000000000000000   T   T   T
  0.5752403071485169  0.5064526599558944  0.0000000000000000   T   T   T
  0.6175136591280912  0.0080870742481342  0.5000000000000000   T   T   T
  0.0776867884872893  0.5046450525130806  0.5000000000000000   T   T   T
 
  0.00000000E+00  0.00000000E+00  0.00000000E+00
  0.00000000E+00  0.00000000E+00  0.00000000E+00
  0.00000000E+00  0.00000000E+00  0.00000000E+00
  0.00000000E+00  0.00000000E+00  0.00000000E+00
  0.00000000E+00  0.00000000E+00  0.00000000E+00
  0.00000000E+00  0.00000000E+00  0.00000000E+00
  0.00000000E+00  0.00000000E+00  0.00000000E+00
  0.00000000E+00  0.00000000E+00  0.00000000E+00
  0.00000000E+00  0.00000000E+00  0.00000000E+00
