Calc_6_MAPbI3-cubic                     
   1.01200000000000     
     6.2018175609393875    0.0369891924342533    0.0000000000000000
     0.0346036777273074    6.2726153575190606    0.0000000000000000
     0.0000000000000000    0.0000000000000000    6.2813822594698960
   N    H    Pb   I 
     1     4     1     3
Selective dynamics
Direct
  0.9733720157505131  0.9782314727945676  0.0000000000000000   T   T   T
  0.0924368595301609  0.8617196785825534  0.0000000000000000   T   T   T
  0.8789110656370585  0.9646242210257072  0.8658530409642209   T   T   T
  0.8789110656370585  0.9646242210257072  0.1341469590357794   T   T   T
  0.0436119924465889  0.1242800432851146  0.0000000000000000   T   T   T
  0.5255496739632588  0.5276276536940232  0.5000000000000000   T   T   T
  0.4483121587334137  0.6001632284716379  0.0000000000000000   T   T   T
  0.6297637183092294  0.0145678992425473  0.5000000000000000   T   T   T
  0.0320751801272009  0.4847022607432301  0.5000000000000000   T   T   T
 
  0.00000000E+00  0.00000000E+00  0.00000000E+00
  0.00000000E+00  0.00000000E+00  0.00000000E+00
  0.00000000E+00  0.00000000E+00  0.00000000E+00
  0.00000000E+00  0.00000000E+00  0.00000000E+00
  0.00000000E+00  0.00000000E+00  0.00000000E+00
  0.00000000E+00  0.00000000E+00  0.00000000E+00
  0.00000000E+00  0.00000000E+00  0.00000000E+00
  0.00000000E+00  0.00000000E+00  0.00000000E+00
  0.00000000E+00  0.00000000E+00  0.00000000E+00
