Calc_10_MAPbI3-cubic                    
   1.01200000000000     
     6.2766890330805376   -0.0001481951212967    0.2275417376065607
    -0.0001328031726610    6.3191943390101546   -0.0000499937533220
     0.2285356649886160   -0.0000410604244175    6.2812113998738672
   C    P    H    Pb   I 
     1     1     6     1     3
Selective dynamics
Direct
  0.9028296541359025  0.0000447526007916  0.9258212895731999   T   T   T
  0.0972779036145206  0.0000421497182553  0.1164836040334531   T   T   T
  0.9836832808888283  0.0000598510302383  0.7674377576089233   T   T   T
  0.8044697024082971  0.1408095665235378  0.9478433421031960   T   T   T
  0.8044695052363305  0.8592582307959049  0.9478151521805140   T   T   T
  0.2281719393618975  0.1792902430973428  0.0931797566501758   T   T   T
  0.2281510952596533  0.8207353338458111  0.0931262027563987   T   T   T
 -0.0008462427500934  0.0000011915974161  0.3217419552835431   T   T   T
  0.5000558739282396  0.4999957554334378  0.5194467953055274   T   T   T
  0.5124933655967208  0.5000096810787870  0.0162516984447845   T   T   T
  0.4725558667152536  0.0000156034490703  0.5211950737303082   T   T   T
  0.9940450864085899  0.5000050556706042  0.4826821996050726   T   T   T
 
  0.00000000E+00  0.00000000E+00  0.00000000E+00
  0.00000000E+00  0.00000000E+00  0.00000000E+00
  0.00000000E+00  0.00000000E+00  0.00000000E+00
  0.00000000E+00  0.00000000E+00  0.00000000E+00
  0.00000000E+00  0.00000000E+00  0.00000000E+00
  0.00000000E+00  0.00000000E+00  0.00000000E+00
  0.00000000E+00  0.00000000E+00  0.00000000E+00
  0.00000000E+00  0.00000000E+00  0.00000000E+00
  0.00000000E+00  0.00000000E+00  0.00000000E+00
  0.00000000E+00  0.00000000E+00  0.00000000E+00
  0.00000000E+00  0.00000000E+00  0.00000000E+00
  0.00000000E+00  0.00000000E+00  0.00000000E+00
