Calc_4_MAPbI3-cubic                     
   1.01200000000000     
     6.2802147580283734   -0.0001432070712459    0.4411168021997849
    -0.0001352739514036    6.1278882491857294   -0.0004453206500126
     0.4364256325354006   -0.0004765359409776    6.3101391784621299
   K    Pb   I 
     1     1     3
Selective dynamics
Direct
  0.1080111613975764 -0.0000677201698653  0.0750069093944605   T   T   T
  0.4301262934084556  0.4999708988895284  0.4668836746873778   T   T   T
  0.4493354519087350  0.5000158604216725  0.9650590441161783   T   T   T
  0.3777115258149842 -0.0000576416351065  0.5271565417252599   T   T   T
  0.9191631481930358  0.5000134667900304  0.3829184248539123   T   T   T
 
  0.00000000E+00  0.00000000E+00  0.00000000E+00
  0.00000000E+00  0.00000000E+00  0.00000000E+00
  0.00000000E+00  0.00000000E+00  0.00000000E+00
  0.00000000E+00  0.00000000E+00  0.00000000E+00
  0.00000000E+00  0.00000000E+00  0.00000000E+00
