Calc_4_MAPbI3-cubic                     
   1.01200000000000     
     6.4651190142712167    0.0009700325246652    0.1956560657093639
     0.0009883816656687    6.2869317223239980   -0.0008957496872893
     0.1985391125419396   -0.0007673549277221    6.3269406600890719
   K    Pb   I 
     1     1     3
Selective dynamics
Direct
  0.1319834673517798  0.0000354358953433  0.0380033264284910   T   T   T
  0.4516991111136746  0.4999696773769778  0.4775575181334415   T   T   T
  0.3953132236406397  0.5000133908057233  0.9726951182962247   T   T   T
  0.3893676540962988 -0.0000882158479798  0.5040714197933287   T   T   T
  0.9159841245203947  0.4999445760661951  0.4246972121257028   T   T   T
 
  0.00000000E+00  0.00000000E+00  0.00000000E+00
  0.00000000E+00  0.00000000E+00  0.00000000E+00
  0.00000000E+00  0.00000000E+00  0.00000000E+00
  0.00000000E+00  0.00000000E+00  0.00000000E+00
  0.00000000E+00  0.00000000E+00  0.00000000E+00
