Calc_12_MAPbI3-cubic                    
   1.01200000000000     
     6.2460480534736886   -0.0000138959065874    0.0373128915680990
    -0.0000123694151946    6.2177502447000421   -0.0000404356513000
     0.0369122007606822   -0.0000411246453869    6.3028875137642029
   C    N    H    Pb   I 
     1     1     6     1     3
Selective dynamics
Direct
  0.9083154998057018  0.9999700195082289  0.9797205586874449   T   T   T
  0.1358136549973156  0.9998905068129588  0.0381345977743096   T   T   T
  0.8973001345576490  0.9998609230530836  0.8084490410620319   T   T   T
  0.8336772300796209  0.1430202686776222  0.0449016480991153   T   T   T
  0.8335402008037816  0.8570698851871783  0.0450769947593849   T   T   T
  0.2147338861528289  0.1336484754735046  0.9812563954832846   T   T   T
  0.2146268591462991  0.8660377321645170  0.9813683844327061   T   T   T
  0.1578477237373055  0.9999569827769575  0.1995584090964873   T   T   T
  0.4685112246107862  0.4999622039454655  0.4798886646867360   T   T   T
  0.4283178849679675  0.4999149781780930  0.9770100708907415   T   T   T
  0.4295596097919054  0.9999642189175919  0.5150099917414720   T   T   T
  0.9557374793487842  0.5000062523047530  0.4454129832862601   T   T   T
 
  0.00000000E+00  0.00000000E+00  0.00000000E+00
  0.00000000E+00  0.00000000E+00  0.00000000E+00
  0.00000000E+00  0.00000000E+00  0.00000000E+00
  0.00000000E+00  0.00000000E+00  0.00000000E+00
  0.00000000E+00  0.00000000E+00  0.00000000E+00
  0.00000000E+00  0.00000000E+00  0.00000000E+00
  0.00000000E+00  0.00000000E+00  0.00000000E+00
  0.00000000E+00  0.00000000E+00  0.00000000E+00
  0.00000000E+00  0.00000000E+00  0.00000000E+00
  0.00000000E+00  0.00000000E+00  0.00000000E+00
  0.00000000E+00  0.00000000E+00  0.00000000E+00
  0.00000000E+00  0.00000000E+00  0.00000000E+00
