Calc_10_MAPbI3-cubic                    
   1.01200000000000     
     6.2766890330805376   -0.0001481951212967    0.2275417376065607
    -0.0001328031726610    6.3191943390101546   -0.0000499937533220
     0.2285356649886160   -0.0000410604244175    6.2812113998738672
   C    P    H    Pb   I 
     1     1     6     1     3
Selective dynamics
Direct
  0.9027593524722787  0.0000313698016294  0.9232134394140938   T   T   T
  0.0958204869279609 -0.0000020962169152  0.1149742954811817   T   T   T
  0.9843891889569947  0.0000664772140861  0.7651923266987632   T   T   T
  0.8043720408787935  0.1407516893769840  0.9449127906310243   T   T   T
  0.8043738523408309  0.8593402668555393  0.9448695573081579   T   T   T
  0.2267369454947402  0.1793365779008989  0.0926335543933052   T   T   T
  0.2266977570393012  0.8207019746469368  0.0925787995825661   T   T   T
 -0.0036338855040817  0.0000039802793393  0.3198699657367552   T   T   T
  0.5010684769665140  0.4999981296489557  0.5233779449678408   T   T   T
  0.5151482449165196  0.5000212488110803  0.0190151560082581   T   T   T
  0.4737946031306185  0.0000109007740713  0.5240325160051293   T   T   T
  0.9958299671836699  0.5000068957485907  0.4883544810480213   T   T   T
 
  0.00000000E+00  0.00000000E+00  0.00000000E+00
  0.00000000E+00  0.00000000E+00  0.00000000E+00
  0.00000000E+00  0.00000000E+00  0.00000000E+00
  0.00000000E+00  0.00000000E+00  0.00000000E+00
  0.00000000E+00  0.00000000E+00  0.00000000E+00
  0.00000000E+00  0.00000000E+00  0.00000000E+00
  0.00000000E+00  0.00000000E+00  0.00000000E+00
  0.00000000E+00  0.00000000E+00  0.00000000E+00
  0.00000000E+00  0.00000000E+00  0.00000000E+00
  0.00000000E+00  0.00000000E+00  0.00000000E+00
  0.00000000E+00  0.00000000E+00  0.00000000E+00
  0.00000000E+00  0.00000000E+00  0.00000000E+00
