MAPbI3-cubic                            
   1.01200000000000     
     6.1684989336657932    0.0374226263881305    0.0000000000000000
     0.0352737049121132    6.2287623588588321    0.0000000000000000
     0.0000000000000000    0.0000000000000000    6.2373685278940281
   As   H    Pb   I 
     1     4     1     3
Selective dynamics
Direct
  0.9916217926497619  0.0023233922534459  0.0000000000000000   T   T   T
  0.1423319526132104  0.8119215259799317  0.0000000000000000   T   T   T
  0.8496809855671531  0.9991449000910705  0.8040678893975782   T   T   T
  0.8496809855671531  0.9991449000910705  0.1959321106024220   T   T   T
  0.1277289928261181  0.1995034457001401  0.0000000000000000   T   T   T
  0.5077914734544066  0.5054739734994825  0.5000000000000000   T   T   T
  0.4863054656393702  0.4995610234066048  0.0000000000000000   T   T   T
  0.5396771795525940  0.0052058631760850  0.5000000000000000   T   T   T
  0.0081249022647148  0.4982616546672649  0.5000000000000000   T   T   T
 
  0.00000000E+00  0.00000000E+00  0.00000000E+00
  0.00000000E+00  0.00000000E+00  0.00000000E+00
  0.00000000E+00  0.00000000E+00  0.00000000E+00
  0.00000000E+00  0.00000000E+00  0.00000000E+00
  0.00000000E+00  0.00000000E+00  0.00000000E+00
  0.00000000E+00  0.00000000E+00  0.00000000E+00
  0.00000000E+00  0.00000000E+00  0.00000000E+00
  0.00000000E+00  0.00000000E+00  0.00000000E+00
  0.00000000E+00  0.00000000E+00  0.00000000E+00
