Calc_6_MAPbI3-cubic                     
   1.01200000000000     
     6.2348810312951075    0.0370838884630178    0.0000000000000000
     0.0350566861315511    6.2442032240074159    0.0000000000000000
     0.0000000000000000    0.0000000000000000    6.1805808331529644
   N    H    Pb   I 
     1     4     1     3
Selective dynamics
Direct
  0.9331654526084728  0.9983535844061839  0.0000000000000000   T   T   T
  0.0253224878926644  0.8627737267724680  0.0000000000000000   T   T   T
  0.8378625045845595  0.9999515122367718  0.8632052639556543   T   T   T
  0.8378625045845595  0.9999515122367718  0.1367947360443383   T   T   T
  0.0266486003197412  0.1308362747000732  0.0000000000000000   T   T   T
  0.5686658566925299  0.5089206299321356  0.5000000000000000   T   T   T
  0.5768028636993162  0.5069071569577245  0.0000000000000000   T   T   T
  0.6194696733377810  0.0081979749875756  0.5000000000000000   T   T   T
  0.0771437864148653  0.5046483066354063  0.5000000000000000   T   T   T
 
  0.00000000E+00  0.00000000E+00  0.00000000E+00
  0.00000000E+00  0.00000000E+00  0.00000000E+00
  0.00000000E+00  0.00000000E+00  0.00000000E+00
  0.00000000E+00  0.00000000E+00  0.00000000E+00
  0.00000000E+00  0.00000000E+00  0.00000000E+00
  0.00000000E+00  0.00000000E+00  0.00000000E+00
  0.00000000E+00  0.00000000E+00  0.00000000E+00
  0.00000000E+00  0.00000000E+00  0.00000000E+00
  0.00000000E+00  0.00000000E+00  0.00000000E+00
