MAPbI3-cubic                            
   1.01200000000000     
     6.1942324730247895    0.0105100824529085    0.0000000000000000
     0.0075493951403924    6.2838554350939253    0.0000000000000000
     0.0000000000000000    0.0000000000000000    6.2890863806025568
   As   H    Pb   I 
     1     4     1     3
Selective dynamics
Direct
  0.9935085346016165  0.0028326077284320  0.0000000000000000   T   T   T
  0.1425784285001271  0.8142344597070796  0.0000000000000000   T   T   T
  0.8517441849071652  0.9985644384948991  0.8057298963289798   T   T   T
  0.8517441849071652  0.9985644384948991  0.1942701036710203   T   T   T
  0.1300775233084257  0.1993481752735652  0.0000000000000000   T   T   T
  0.5071566582854509  0.5062988037561890  0.5000000000000000   T   T   T
  0.4838943266089386  0.4994061965853641  0.0000000000000000   T   T   T
  0.5345417619137086  0.0026540018082643  0.5000000000000000   T   T   T
  0.0076981271018842  0.4986375570164043  0.5000000000000000   T   T   T
 
  0.00000000E+00  0.00000000E+00  0.00000000E+00
  0.00000000E+00  0.00000000E+00  0.00000000E+00
  0.00000000E+00  0.00000000E+00  0.00000000E+00
  0.00000000E+00  0.00000000E+00  0.00000000E+00
  0.00000000E+00  0.00000000E+00  0.00000000E+00
  0.00000000E+00  0.00000000E+00  0.00000000E+00
  0.00000000E+00  0.00000000E+00  0.00000000E+00
  0.00000000E+00  0.00000000E+00  0.00000000E+00
  0.00000000E+00  0.00000000E+00  0.00000000E+00
