Calc_5_MAPbI3-cubic                     
   1.01200000000000     
     6.6987824630080022   -0.0004289929272870    0.0449143887472715
    -0.0003081752549661    5.9843790441097191    0.0001663943444526
     0.0294503820388771    0.0001231245860680    6.1302625527892634
   Na   Pb   I 
     1     1     3
Selective dynamics
Direct
  0.2023132396444804 -0.0001021023598713  0.0201077658212016   T   T   T
  0.4813384026612741  0.5000223816792512  0.4780076588944236   T   T   T
  0.3600621270712817  0.4999201566755808  0.9832230223670400   T   T   T
  0.3248642799786792  0.0000113966349044  0.5129336816930427   T   T   T
  0.9157695313670718  0.5000230316663938  0.4227524660014805   T   T   T
 
  0.00000000E+00  0.00000000E+00  0.00000000E+00
  0.00000000E+00  0.00000000E+00  0.00000000E+00
  0.00000000E+00  0.00000000E+00  0.00000000E+00
  0.00000000E+00  0.00000000E+00  0.00000000E+00
  0.00000000E+00  0.00000000E+00  0.00000000E+00
