MAPbI3-cubic                            
   1.01200000000000     
     6.3398674674219766   -0.0000072532496016    0.0781119507292269
    -0.0000060920028583    6.2575687792524892   -0.0000148805390760
     0.0783525660825051   -0.0000153052124830    6.3367124285730894
   C    N    H    Pb   I 
     1     1     6     1     3
Selective dynamics
Direct
  0.9098727304202192  0.9999579379415678  0.9741988237019096   T   T   T
  0.1301520801304120  0.9999267814585615  0.0426040554533421   T   T   T
  0.9093217794274443  0.9999008061655882  0.8035653623608434   T   T   T
  0.8325493990427408  0.1418212995240372  0.0354258201645973   T   T   T
  0.8324781964531103  0.8581739868104450  0.0355187159173645   T   T   T
  0.2109788760337720  0.1327960800784154  0.9898089379014501   T   T   T
  0.2109303933352396  0.8670077785409178  0.9898560793734948   T   T   T
  0.1429546955238876  0.9999544106625669  0.2036542313662406   T   T   T
  0.4764111379149992  0.4999402745409252  0.4801943963167603   T   T   T
  0.4274889499986927  0.4999347853746641  0.9780469446920209   T   T   T
  0.4430795576273004  0.9999417867711448  0.4994827010441735   T   T   T
  0.9517635920921429  0.4999465191311215  0.4634316717077432   T   T   T
 
  0.00000000E+00  0.00000000E+00  0.00000000E+00
  0.00000000E+00  0.00000000E+00  0.00000000E+00
  0.00000000E+00  0.00000000E+00  0.00000000E+00
  0.00000000E+00  0.00000000E+00  0.00000000E+00
  0.00000000E+00  0.00000000E+00  0.00000000E+00
  0.00000000E+00  0.00000000E+00  0.00000000E+00
  0.00000000E+00  0.00000000E+00  0.00000000E+00
  0.00000000E+00  0.00000000E+00  0.00000000E+00
  0.00000000E+00  0.00000000E+00  0.00000000E+00
  0.00000000E+00  0.00000000E+00  0.00000000E+00
  0.00000000E+00  0.00000000E+00  0.00000000E+00
  0.00000000E+00  0.00000000E+00  0.00000000E+00
