Calc_7_MAPbI3-cubic                            
   1.01200000000000     
     6.2151558229226822    0.0100033889829939    0.0000000000000000
     0.0075503083809416    6.2648138071512491    0.0000000000000000
     0.0000000000000000    0.0000000000000000    6.2904270169666159
   P   H    Pb   I 
     1     4     1     3
Selective dynamics
Direct
  0.9908471141152567 -0.0002766820535464  0.0000000000000000   T   T   T
  0.1442190045583765  0.8126496137813984  0.0000000000000000   T   T   T
  0.8497545667315114  0.9960416498426115  0.8039709211920766   T   T   T
  0.8497545667315114  0.9960416498426115  0.1960290788079236   T   T   T
  0.1242861004201413  0.1993521898007780  0.0000000000000000   T   T   T
  0.5024034830747299  0.4962276484922493  0.5000000000000000   T   T   T
  0.4833874428148934  0.5145411796580880  0.0000000000000000   T   T   T
  0.5508951212807708 -0.0014129664631306  0.5000000000000000   T   T   T
  0.0073963304072911  0.5073763959640379  0.5000000000000000   T   T   T
 
  0.00000000E+00  0.00000000E+00  0.00000000E+00
  0.00000000E+00  0.00000000E+00  0.00000000E+00
  0.00000000E+00  0.00000000E+00  0.00000000E+00
  0.00000000E+00  0.00000000E+00  0.00000000E+00
  0.00000000E+00  0.00000000E+00  0.00000000E+00
  0.00000000E+00  0.00000000E+00  0.00000000E+00
  0.00000000E+00  0.00000000E+00  0.00000000E+00
  0.00000000E+00  0.00000000E+00  0.00000000E+00
  0.00000000E+00  0.00000000E+00  0.00000000E+00
