MAPbI3-cubic                            
   1.01200000000000     
     6.2798606406117932    0.0058327702278134    0.0863784307294732
     0.0055976107852935    6.2417308496448234    0.0021448732892294
     0.0863895900180064    0.0024446493113327    6.2666231603000879
   Rb   Pb   I 
     1     1     3
Selective dynamics
Direct
  0.0596967331551444 -0.0001819338091490  0.0266529388012685   T   T   T
  0.4501810480401843  0.5004595265713578  0.4746686069999669   T   T   T
  0.4214611616514990  0.4992628895516219  0.9740785286117072   T   T   T
  0.4122952413304732  0.0002177641816254  0.5014725983295476   T   T   T
  0.9407133965454869  0.5001166178008037  0.4401519220346985   T   T   T
 
  0.00000000E+00  0.00000000E+00  0.00000000E+00
  0.00000000E+00  0.00000000E+00  0.00000000E+00
  0.00000000E+00  0.00000000E+00  0.00000000E+00
  0.00000000E+00  0.00000000E+00  0.00000000E+00
  0.00000000E+00  0.00000000E+00  0.00000000E+00
