Calc1_MAPbI3-cubic                      
   1.01200000000000     
     6.1636656666302603    0.0044839676361285    0.0000000000000000
     0.0009713873166343    6.2283556376862395    0.0000000000000000
     0.0000000000000000    0.0000000000000000    6.2333179444851954
   Sb   H    Pb   I 
     1     4     1     3
Selective dynamics
Direct
  0.0016928060876781  0.0025033310025422  0.0000000000000000   T   T   T
  0.1614754928189293  0.7846117815217398  0.0000000000000000   T   T   T
  0.8412702853649799  0.0022026723559149  0.7830597597631734   T   T   T
  0.8412702853649799  0.0022026723559149  0.2169402402368266   T   T   T
  0.1606471940114839  0.2208237080954363  0.0000000000000000   T   T   T
  0.4992347922733524  0.5013886032517726  0.5000000000000000   T   T   T
  0.5333034539940403  0.5013213751227229  0.0000000000000000   T   T   T
  0.4648472139306993  0.0018588791240805  0.5000000000000000   T   T   T
  0.9992022062883463  0.5036276560349937  0.5000000000000000   T   T   T
 
  0.00000000E+00  0.00000000E+00  0.00000000E+00
  0.00000000E+00  0.00000000E+00  0.00000000E+00
  0.00000000E+00  0.00000000E+00  0.00000000E+00
  0.00000000E+00  0.00000000E+00  0.00000000E+00
  0.00000000E+00  0.00000000E+00  0.00000000E+00
  0.00000000E+00  0.00000000E+00  0.00000000E+00
  0.00000000E+00  0.00000000E+00  0.00000000E+00
  0.00000000E+00  0.00000000E+00  0.00000000E+00
  0.00000000E+00  0.00000000E+00  0.00000000E+00
