MAPbI3-cubic                            
   1.01200000000000     
     6.2097895125932485    0.0000471838709665    0.0465462220614801
     0.0000480798725106    6.2038508574482325   -0.0000358864424597
     0.0460680298962817   -0.0000360599985123    6.2693719773186807
   C    N    H    Pb   I 
     1     1     6     1     3
Selective dynamics
Direct
  0.9067280996274429 -0.0000147923188686  0.9790058889334000   T   T   T
  0.1353814765455054 -0.0001315176368524  0.0376680168115012   T   T   T
  0.8963525583533970  0.9998681876670588  0.8068527854856147   T   T   T
  0.8316209181946735  0.1432903466014730  0.0446643759504631   T   T   T
  0.8314855087633161  0.8567937317685838  0.0448509371818926   T   T   T
  0.2149131098155587  0.1339195945535658  0.9800723664159909   T   T   T
  0.2147932229184666  0.8657952619030381  0.9801965962424584   T   T   T
  0.1562942197349639  0.9999598844460510  0.2001811427791857   T   T   T
  0.4688767628049993  0.4999542458212638  0.4796869796557099   T   T   T
  0.4319961959282926  0.4999148044100635  0.9780832599807630   T   T   T
  0.4318964297997263  0.9999525231615574  0.5174293173975881   T   T   T
  0.9576428855136041  0.5000001766230210  0.4470960731654016   T   T   T
 
  0.00000000E+00  0.00000000E+00  0.00000000E+00
  0.00000000E+00  0.00000000E+00  0.00000000E+00
  0.00000000E+00  0.00000000E+00  0.00000000E+00
  0.00000000E+00  0.00000000E+00  0.00000000E+00
  0.00000000E+00  0.00000000E+00  0.00000000E+00
  0.00000000E+00  0.00000000E+00  0.00000000E+00
  0.00000000E+00  0.00000000E+00  0.00000000E+00
  0.00000000E+00  0.00000000E+00  0.00000000E+00
  0.00000000E+00  0.00000000E+00  0.00000000E+00
  0.00000000E+00  0.00000000E+00  0.00000000E+00
  0.00000000E+00  0.00000000E+00  0.00000000E+00
  0.00000000E+00  0.00000000E+00  0.00000000E+00
