Calc_7_MAPbI3-cubic                     
   1.01200000000000     
     6.1611983048331629   -0.0167448965672902    0.0000000000000000
    -0.0192761404957231    6.1687684886523586    0.0000000000000000
     0.0000000000000000    0.0000000000000000    6.1952011314536337
   P    H    Pb   I 
     1     4     1     3
Selective dynamics
Direct
  0.9927427352201031  0.0003873379239045  0.0000000000000000   T   T   T
  0.1329255800692805  0.8214863144496876  0.0000000000000000   T   T   T
  0.8600801307471737  0.9957808237608905  0.8148453057637650   T   T   T
  0.8600801307471737  0.9957808237608905  0.1851546942362348   T   T   T
  0.1189079874131436  0.1903935772107524  0.0000000000000000   T   T   T
  0.5055074624362453  0.4991558497576642  0.5000000000000000   T   T   T
  0.4849788482181465  0.5119128715488589  0.0000000000000000   T   T   T
  0.5405831411785224  0.0009356145666170  0.5000000000000000   T   T   T
  0.0071377141046941  0.5047074658858305  0.5000000000000000   T   T   T
 
  0.00000000E+00  0.00000000E+00  0.00000000E+00
  0.00000000E+00  0.00000000E+00  0.00000000E+00
  0.00000000E+00  0.00000000E+00  0.00000000E+00
  0.00000000E+00  0.00000000E+00  0.00000000E+00
  0.00000000E+00  0.00000000E+00  0.00000000E+00
  0.00000000E+00  0.00000000E+00  0.00000000E+00
  0.00000000E+00  0.00000000E+00  0.00000000E+00
  0.00000000E+00  0.00000000E+00  0.00000000E+00
  0.00000000E+00  0.00000000E+00  0.00000000E+00
