Calc_6_MAPbI3-cubic                     
   1.01200000000000     
     6.1666182861237964    0.5723366170763463    0.0000000000000000
     0.5569648692206398    6.2592964681099827    0.0000000000000000
     0.0000000000000000    0.0000000000000000    6.0671729701540782
   N    H    Pb   I 
     1     4     1     3
Selective dynamics
Direct
  0.9624860660947688  0.0075266169583320  0.0000000000000000   T   T   T
  0.0997592797283703  0.8868135621918906  0.0000000000000000   T   T   T
  0.8704899489622089  0.9946844829142228  0.8601913305664546   T   T   T
  0.8704899489622089  0.9946844829142228  0.1398086694335454   T   T   T
  0.0108462361883174  0.1539195930233368  0.0000000000000000   T   T   T
  0.5383537724132657  0.4986921997039936  0.5000000000000000   T   T   T
  0.4551419286075683  0.6013227669681500  0.0000000000000000   T   T   T
  0.6456315609017337  0.9883508019899233  0.5000000000000000   T   T   T
  0.0497449882760407  0.3945461722010026  0.5000000000000000   T   T   T
 
  0.00000000E+00  0.00000000E+00  0.00000000E+00
  0.00000000E+00  0.00000000E+00  0.00000000E+00
  0.00000000E+00  0.00000000E+00  0.00000000E+00
  0.00000000E+00  0.00000000E+00  0.00000000E+00
  0.00000000E+00  0.00000000E+00  0.00000000E+00
  0.00000000E+00  0.00000000E+00  0.00000000E+00
  0.00000000E+00  0.00000000E+00  0.00000000E+00
  0.00000000E+00  0.00000000E+00  0.00000000E+00
  0.00000000E+00  0.00000000E+00  0.00000000E+00
