MAPbI3-cubic                            
   1.01200000000000     
     6.1957796609956430    0.0000842236059855   -0.0411941315630645
     0.0000826968930408    6.1932378803795052    0.0003356490721394
    -0.0408587711669943    0.0003345902645344    6.2000885004172401
   Cs   Pb   I 
     1     1     3
Selective dynamics
Direct
  0.0140472009275938  0.0000810936575593  0.0037097489399836   T   T   T
  0.4538597201377900  0.4999821898362058  0.4819163200018615   T   T   T
  0.4323128002290169  0.4998068181149726  0.9803067767203706   T   T   T
  0.4344041293587498  0.9999865790398127  0.4994407273492356   T   T   T
  0.9497237300696372  0.5000181836477092  0.4516510217657377   T   T   T
 
  0.00000000E+00  0.00000000E+00  0.00000000E+00
  0.00000000E+00  0.00000000E+00  0.00000000E+00
  0.00000000E+00  0.00000000E+00  0.00000000E+00
  0.00000000E+00  0.00000000E+00  0.00000000E+00
  0.00000000E+00  0.00000000E+00  0.00000000E+00
