Calc_6_MAPbI3-cubic                     
   1.01200000000000     
     6.1803767664766962    0.5833927678241257    0.0000000000000000
     0.5672698655842462    6.2563974773033886    0.0000000000000000
     0.0000000000000000    0.0000000000000000    6.0548246149437697
   N    H    Pb   I 
     1     4     1     3
Selective dynamics
Direct
  0.9637424602555423  0.0080779752604991  0.0000000000000000   T   T   T
  0.1002206685911163  0.8863956519329821  0.0000000000000000   T   T   T
  0.8718780052131991  0.9956304999412887  0.8601193196107465   T   T   T
  0.8718780052131991  0.9956304999412887  0.1398806803892535   T   T   T
  0.0124112002532214  0.1540653321814891  0.0000000000000000   T   T   T
  0.5389115328743983  0.4968044134624876  0.5000000000000000   T   T   T
  0.4520802091189528  0.5999791211165806  0.0000000000000000   T   T   T
  0.6447550607966752  0.9883949974752468  0.5000000000000000   T   T   T
  0.0470665878181782  0.3955621875532332  0.5000000000000000   T   T   T
 
  0.00000000E+00  0.00000000E+00  0.00000000E+00
  0.00000000E+00  0.00000000E+00  0.00000000E+00
  0.00000000E+00  0.00000000E+00  0.00000000E+00
  0.00000000E+00  0.00000000E+00  0.00000000E+00
  0.00000000E+00  0.00000000E+00  0.00000000E+00
  0.00000000E+00  0.00000000E+00  0.00000000E+00
  0.00000000E+00  0.00000000E+00  0.00000000E+00
  0.00000000E+00  0.00000000E+00  0.00000000E+00
  0.00000000E+00  0.00000000E+00  0.00000000E+00
