Calc_11_MAPbI3-cubic                    
   1.01200000000000     
     6.2873896523747801   -0.0000141642002346    0.2847558146135245
    -0.0000124995876784    6.3426152437517027    0.0000150446731449
     0.2865225316856160    0.0000183297426000    6.3119297174137046
   C    As   H    Pb   I 
     1     1     6     1     3
Selective dynamics
Direct
  0.8936004246228213 -0.0000188896277619  0.9039527419856964   T   T   T
  0.1000511350510950  0.9999596225948634  0.1057579619667721   T   T   T
  0.9775658324514062  0.9999469807388056  0.7468118112946651   T   T   T
  0.7969326452885341  0.1406196235370735  0.9284271822755318   T   T   T
  0.7969155636351174  0.8592568038675767  0.9284329115139134   T   T   T
  0.2383108660791267  0.1932490755074555  0.0780275073750835   T   T   T
  0.2383147716162884  0.8066727279364123  0.0780376942258794   T   T   T
  0.9861407775402898  0.9999611769429723  0.3221685843688050   T   T   T
  0.5039594848429821  0.4999641033205030  0.5088863179817990   T   T   T
  0.5011590744463968  0.4999651297871483  0.0059858599884575   T   T   T
  0.4916686220051190  0.9999636633329229  0.5077045669910559   T   T   T
 -0.0022021245677016  0.4999561421544989  0.4921766211383081   T   T   T
 
  0.00000000E+00  0.00000000E+00  0.00000000E+00
  0.00000000E+00  0.00000000E+00  0.00000000E+00
  0.00000000E+00  0.00000000E+00  0.00000000E+00
  0.00000000E+00  0.00000000E+00  0.00000000E+00
  0.00000000E+00  0.00000000E+00  0.00000000E+00
  0.00000000E+00  0.00000000E+00  0.00000000E+00
  0.00000000E+00  0.00000000E+00  0.00000000E+00
  0.00000000E+00  0.00000000E+00  0.00000000E+00
  0.00000000E+00  0.00000000E+00  0.00000000E+00
  0.00000000E+00  0.00000000E+00  0.00000000E+00
  0.00000000E+00  0.00000000E+00  0.00000000E+00
  0.00000000E+00  0.00000000E+00  0.00000000E+00
