Calc1_MAPbI3-cubic                      
   1.01200000000000     
     6.2563666461838796    0.0056147263721614    0.0000000000000000
     0.0019070755434410    6.3539043546907870    0.0000000000000000
     0.0000000000000000    0.0000000000000000    6.3490453601710870
   Sb   H    Pb   I 
     1     4     1     3
Selective dynamics
Direct
  0.0019086970074471  0.0031355880085553  0.0000000000000000   T   T   T
  0.1604761929561289  0.7894939409124900  0.0000000000000000   T   T   T
  0.8427698808263308  0.0022730696650836  0.7869348839213248   T   T   T
  0.8427698808263308  0.0022730696650836  0.2130651160786751   T   T   T
  0.1602722541078248  0.2168040328487633  0.0000000000000000   T   T   T
  0.5012396459164031  0.5024893133078244  0.5000000000000000   T   T   T
  0.5080833664203461  0.4995940455712759  0.0000000000000000   T   T   T
  0.4855513416721878  0.0020177862833010  0.5000000000000000   T   T   T
 -0.0001275295985105  0.5024598326027402  0.5000000000000000   T   T   T
 
  0.00000000E+00  0.00000000E+00  0.00000000E+00
  0.00000000E+00  0.00000000E+00  0.00000000E+00
  0.00000000E+00  0.00000000E+00  0.00000000E+00
  0.00000000E+00  0.00000000E+00  0.00000000E+00
  0.00000000E+00  0.00000000E+00  0.00000000E+00
  0.00000000E+00  0.00000000E+00  0.00000000E+00
  0.00000000E+00  0.00000000E+00  0.00000000E+00
  0.00000000E+00  0.00000000E+00  0.00000000E+00
  0.00000000E+00  0.00000000E+00  0.00000000E+00
