Calc_10_MAPbI3-cubic                    
   1.01200000000000     
     6.2883569963790418   -0.0001989491768250    0.2326668628399368
    -0.0001815575338535    6.3225498647076863   -0.0001373101356425
     0.2335140469390637   -0.0001293808407690    6.2912529299438766
   C    P    H    Pb   I 
     1     1     6     1     3
Selective dynamics
Direct
  0.8961972100081114  0.0000805611620381  0.9332352500140721   T   T   T
  0.0978799218112709 -0.0000090603533769  0.1150567245904360   T   T   T
  0.9711783246828191  0.0001120092566864  0.7726771258827890   T   T   T
  0.7985048697740718  0.1406893299692313  0.9582760583290345   T   T   T
  0.7984345593707535  0.8594955360433152  0.9581871366975335   T   T   T
  0.2280339032895254  0.1791891479506915  0.0854790248683689   T   T   T
  0.2279429112593831  0.8207382919679315  0.0853951464039625   T   T   T
  0.0083265080009737  0.9999609929905576  0.3235130156419461   T   T   T
  0.5000000000000000  0.5000000000000000  0.5000000000000000   F   F   F
  0.5000000000000000  0.5000000000000000  0.0000000000000000   F   F   F
  0.5000000000000000  0.0000000000000000  0.5000000000000000   F   F   F
  0.0000000000000000  0.5000000000000000  0.5000000000000000   F   F   F
 
  0.00000000E+00  0.00000000E+00  0.00000000E+00
  0.00000000E+00  0.00000000E+00  0.00000000E+00
  0.00000000E+00  0.00000000E+00  0.00000000E+00
  0.00000000E+00  0.00000000E+00  0.00000000E+00
  0.00000000E+00  0.00000000E+00  0.00000000E+00
  0.00000000E+00  0.00000000E+00  0.00000000E+00
  0.00000000E+00  0.00000000E+00  0.00000000E+00
  0.00000000E+00  0.00000000E+00  0.00000000E+00
  0.00000000E+00  0.00000000E+00  0.00000000E+00
  0.00000000E+00  0.00000000E+00  0.00000000E+00
  0.00000000E+00  0.00000000E+00  0.00000000E+00
  0.00000000E+00  0.00000000E+00  0.00000000E+00
