Calc_4_MAPbI3-cubic                     
   1.01200000000000     
     6.2713758972427254    0.0006161939936150    0.0598076403110238
     0.0006214350756701    6.2050979659335210    0.0001092884594952
     0.0603299032172091    0.0001203632332919    6.2247933344944100
   K    Pb   I 
     1     1     3
Selective dynamics
Direct
  0.0527076356604783  0.0000545442100406  0.0204776331263303   T   T   T
  0.4551733611371453  0.4999553743935451  0.4798860385730965   T   T   T
  0.4192884504929457  0.5000008394116288  0.9766154261724842   T   T   T
  0.4160006558367194 -0.0000000777700033  0.4896308901960478   T   T   T
  0.9411774775954990  0.4998641840510484  0.4504146067092301   T   T   T
 
  0.00000000E+00  0.00000000E+00  0.00000000E+00
  0.00000000E+00  0.00000000E+00  0.00000000E+00
  0.00000000E+00  0.00000000E+00  0.00000000E+00
  0.00000000E+00  0.00000000E+00  0.00000000E+00
  0.00000000E+00  0.00000000E+00  0.00000000E+00
