MAPbI3-cubic                            
   1.01200000000000     
     6.2552913222482438    0.0002415587446712   -0.0265884562590619
     0.0002407049705961    6.2290474586497089    0.0001750332349402
    -0.0263987720483163    0.0001718505716132    6.2378626959378503
   Rb   Pb   I 
     1     1     3
Selective dynamics
Direct
  0.0064001315589226  0.0000385985592395  0.0001375256255179   T   T   T
  0.4637663845351408  0.4999789361337207  0.4808684893021355   T   T   T
  0.4292866065393501  0.4998736775829981  0.9804748593144667   T   T   T
  0.4316682726565470  0.9999640944277686  0.5063962805620926   T   T   T
  0.9532261854328354  0.5000195575925275  0.4491474399729720   T   T   T
