Calc_10_MAPbI3-cubic                    
   1.01200000000000     
     6.3715062788763479   -0.0002333112908865    0.1631429533937130
    -0.0002218399711964    6.4153425221695315   -0.0001385115725004
     0.1639405998678181   -0.0001359438152052    6.3952166965308210
   C    P    H    Pb   I 
     1     1     6     1     3
Selective dynamics
Direct
  0.8978305948221891  0.0000840061517909  0.9359223359121638   T   T   T
  0.0983138134839154 -0.0000052348446228  0.1184876539694459   T   T   T
  0.9703394562977117  0.0001223710341142  0.7787819277464815   T   T   T
  0.8014550203203858  0.1386332137396374  0.9590138992810823   T   T   T
  0.8013912928912206  0.8615502071660471  0.9589207990914100   T   T   T
  0.2263248038608363  0.1767231514742174  0.0914430381205931   T   T   T
  0.2262269841649245  0.8232173314917347  0.0913530536834777   T   T   T
  0.0116696640590421  0.9999655202392183  0.3224102175764634   T   T   T
  0.5000000000000000  0.5000000000000000  0.5000000000000000   F   F   F
  0.5000000000000000  0.5000000000000000  0.0000000000000000   F   F   F
  0.5000000000000000  0.0000000000000000  0.5000000000000000   F   F   F
  0.0000000000000000  0.5000000000000000  0.5000000000000000   F   F   F
 
  0.00000000E+00  0.00000000E+00  0.00000000E+00
  0.00000000E+00  0.00000000E+00  0.00000000E+00
  0.00000000E+00  0.00000000E+00  0.00000000E+00
  0.00000000E+00  0.00000000E+00  0.00000000E+00
  0.00000000E+00  0.00000000E+00  0.00000000E+00
  0.00000000E+00  0.00000000E+00  0.00000000E+00
  0.00000000E+00  0.00000000E+00  0.00000000E+00
  0.00000000E+00  0.00000000E+00  0.00000000E+00
  0.00000000E+00  0.00000000E+00  0.00000000E+00
  0.00000000E+00  0.00000000E+00  0.00000000E+00
  0.00000000E+00  0.00000000E+00  0.00000000E+00
  0.00000000E+00  0.00000000E+00  0.00000000E+00
