MAPbI3-cubic                            
   1.01200000000000     
     6.2793653113318522    0.0024962895432947    0.0000000000000000
    -0.0011606009210231    6.3334340440904811    0.0000000000000000
     0.0000000000000000    0.0000000000000000    6.3337013652400351
   Sb   H    Pb   I 
     1     4     1     3
Selective dynamics
Direct
 -0.0005764386950617 -0.0005790609309530  0.0000000000000000   T   T   T
  0.1749378432215032  0.7972993838363360  0.0000000000000000   T   T   T
  0.8413221285880486  0.9873327483469454  0.7848483311270829   T   T   T
  0.8413221285880486  0.9873327483469454  0.2151516688729089   T   T   T
  0.1398495449813281  0.2262020277852066  0.0000000000000000   T   T   T
  0.5002111567750090  0.5001369671302219  0.5000000000000000   T   T   T
  0.4927635405040972  0.4987881755264815  0.0000000000000000   T   T   T
  0.5071521440785539  0.0006920933379910  0.5000000000000000   T   T   T
 -0.0000452528245766  0.4999347474148178  0.5000000000000000   T   T   T
 
  0.00000000E+00  0.00000000E+00  0.00000000E+00
  0.00000000E+00  0.00000000E+00  0.00000000E+00
  0.00000000E+00  0.00000000E+00  0.00000000E+00
  0.00000000E+00  0.00000000E+00  0.00000000E+00
  0.00000000E+00  0.00000000E+00  0.00000000E+00
  0.00000000E+00  0.00000000E+00  0.00000000E+00
  0.00000000E+00  0.00000000E+00  0.00000000E+00
  0.00000000E+00  0.00000000E+00  0.00000000E+00
  0.00000000E+00  0.00000000E+00  0.00000000E+00
