MAPbI3-cubic                            
   1.01200000000000     
     6.3612975242476084   -0.0003905808316693    0.1482007439764804
    -0.0004029288576339    6.3822767055388185    0.0013831004488198
     0.1493958055405210    0.0013690403868355    6.3918277914097299
   C    P    H    Pb   I 
     1     1     6     1     3
Selective dynamics
Direct
  0.8968993597049106  0.0001012016928286  0.9355899407977901   T   T   T
  0.0982630128017163  0.9999652763016087  0.1182803076827454   T   T   T
  0.9690062246502436  0.0001942197318954  0.7783187548023278   T   T   T
  0.8006314295263408  0.1396581015822633  0.9584436675467600   T   T   T
  0.8005346248293534  0.8605657530465791  0.9584171107269626   T   T   T
  0.2261710747914165  0.1779287640981266  0.0916184682517667   T   T   T
  0.2260382512820129  0.8219618594223022  0.0916436767185900   T   T   T
  0.0117022662054751  0.9998728994284960  0.3220108440791236   T   T   T
  0.5009712705096234  0.5000013544554136  0.5014804763147893   T   T   T
  0.4995083276207026  0.5000150441461670  0.0012248957125394   T   T   T
  0.4977897007385792  0.9999937972535093  0.4986430399690320   T   T   T
  0.0003740601757158  0.4999872176089539  0.4983014039345335   T   T   T
 
  0.00000000E+00  0.00000000E+00  0.00000000E+00
  0.00000000E+00  0.00000000E+00  0.00000000E+00
  0.00000000E+00  0.00000000E+00  0.00000000E+00
  0.00000000E+00  0.00000000E+00  0.00000000E+00
  0.00000000E+00  0.00000000E+00  0.00000000E+00
  0.00000000E+00  0.00000000E+00  0.00000000E+00
  0.00000000E+00  0.00000000E+00  0.00000000E+00
  0.00000000E+00  0.00000000E+00  0.00000000E+00
  0.00000000E+00  0.00000000E+00  0.00000000E+00
  0.00000000E+00  0.00000000E+00  0.00000000E+00
  0.00000000E+00  0.00000000E+00  0.00000000E+00
  0.00000000E+00  0.00000000E+00  0.00000000E+00
