SYSTEM = Pt 

#####Start parameter for this run:
#####ISTART  = 1         ! start job from scratch (see INIWAV)
#####INIWAV  = 1         ! Fill wavefunctions arrays with random numbers
#####ICHARG  = 1         ! Calculat charge density from initial wave function

Electronic relaxation:
ENCUT   = 500.000   ! Cutoff energy for plane waves basis set in eV (determines NGX,Y,Z). 
#ENCUT   = 473.514750
ALGO    = Normal    ! 
NELMIN  = 6         ! Minimum number of eletronic selfconsistency (SC) steps
NELM    = 80        ! Maximum number of electronic SC steps
NELMDL  = -8        ! Number of NON-selfconsistency steps 
EDIFF   = 1.0E-5    ! Global-break condition for the electronic SC-loop (ELM) 

Calculation mode:
PREC    = Normal  ! Calcululation level (Changes FFT-grids) 
ISPIN   = 2         ! spin-polarized calculations 
ADDGRID = .TRUE.    ! PAW flag
LASPH   = .TRUE.    ! non-spherical elements in the PAW method
#####PREC    = Normal

#LSORBIT = .TRUE.
#SAXIS   = 0 0 1
#GGA_COMPAT = .TRUE.
#ISYM    = 2

Ionic relaxation:
NSW     = 0       ! Number of ionic steps
EDIFFG  = -0.020    ! stop if all forces are smaller than |EDIFFG|
IBRION  = 2         !
ISIF    = 3         ! Calculate FORCE and Relaxa Ions
POTIM   = 0.50

Integration over the Brillouin zone (BZ):
ISMEAR  = 0         ! Gaussian 
SIGMA   = 0.010

DOS calculation:
LORBIT  = 11        ! Calculate the DOS without providing the Wigner Seitz radius
NEDOS   = 6000       ! Number of points to calculate the DOS

EMIN = -10.000
EMAX = 10.000

OUTCAR size:
NWRITE  = 1         ! Determines how much information will be written in OUTCAR
LWAVE   = .FALSE.
LCHARG  = .FALSE.

Key for parallel mode calculation:
#NPAR = 1
NCORE = 7
LPLANE = .TRUE. 

EOF
