MAPbI3-cubic                            
   1.01200000000000     
     6.2777399720444995   -0.0000262882624144    0.0361237771085281
    -0.0000247687617952    6.2803589616075666    0.0000373497028856
     0.0354781877695434    0.0000379369802770    6.3771611248829752
   C    N    H    Pb   I 
     1     1     6     1     3
Selective dynamics
Direct
  0.9099497839848715  0.9999777157518940  0.9795550328762617   T   T   T
  0.1362131552670614  0.9998846438337650  0.0381874978944772   T   T   T
  0.8998807493236207  0.9998782613146716  0.8102787311590069   T   T   T
  0.8355262188506071  0.1414845650793274  0.0438593625812438   T   T   T
  0.8354000776933262  0.8586098249667095  0.0440110266515163   T   T   T
  0.2149058797490263  0.1322322339339789  0.9823468577465906   T   T   T
  0.2148105512703622  0.8674411210077931  0.9824366948274809   T   T   T
  0.1575388053790656  0.9999476498397480  0.1977919887777396   T   T   T
  0.4567545463862938  0.4999560250626370  0.4799888998783372   T   T   T
  0.4324518420145619  0.4999230383607531  0.9765319092055844   T   T   T
  0.4344934619472520  0.9999604198763747  0.5087860091791907   T   T   T
  0.9500563161339053  0.5000069479722959  0.4520137292225325   T   T   T
 
  0.00000000E+00  0.00000000E+00  0.00000000E+00
  0.00000000E+00  0.00000000E+00  0.00000000E+00
  0.00000000E+00  0.00000000E+00  0.00000000E+00
  0.00000000E+00  0.00000000E+00  0.00000000E+00
  0.00000000E+00  0.00000000E+00  0.00000000E+00
  0.00000000E+00  0.00000000E+00  0.00000000E+00
  0.00000000E+00  0.00000000E+00  0.00000000E+00
  0.00000000E+00  0.00000000E+00  0.00000000E+00
  0.00000000E+00  0.00000000E+00  0.00000000E+00
  0.00000000E+00  0.00000000E+00  0.00000000E+00
  0.00000000E+00  0.00000000E+00  0.00000000E+00
  0.00000000E+00  0.00000000E+00  0.00000000E+00
