Calc_4_MAPbI3-cubic                     
   1.01200000000000     
     6.2613981291511234   -0.0000327962588119    0.1008079642767801
    -0.0000129418854679    6.1850462457405229   -0.0001214891494944
     0.1004190397734474   -0.0001527107829765    6.2322139424517680
   K    Pb   I 
     1     1     3
Selective dynamics
Direct
  0.0931770064247552  0.0000577827239251  0.0344406692151941   T   T   T
  0.4511152747196364  0.4999396770016707  0.4744305761832087   T   T   T
  0.4105196814926928  0.5000240728392260  0.9731145874010554   T   T   T
  0.3934318145444381  0.9999529362888814  0.5106989628998942   T   T   T
  0.9361038035412650  0.4999003954425567  0.4243397990778365   T   T   T
 
  0.00000000E+00  0.00000000E+00  0.00000000E+00
  0.00000000E+00  0.00000000E+00  0.00000000E+00
  0.00000000E+00  0.00000000E+00  0.00000000E+00
  0.00000000E+00  0.00000000E+00  0.00000000E+00
  0.00000000E+00  0.00000000E+00  0.00000000E+00
