Calc_7_MAPbI3-cubic                     
   1.01200000000000     
     6.1690919984548991   -0.0054618361006223    0.0000000000000000
    -0.0078451543742626    6.2188104654149896    0.0000000000000000
     0.0000000000000000    0.0000000000000000    6.2227048005458414
   P    H    Pb   I 
     1     4     1     3
Selective dynamics
Direct
  0.9934076695327438  0.0010884129841430  0.0000000000000000   T   T   T
  0.1321424122733945  0.8226133982882723  0.0000000000000000   T   T   T
  0.8607501906354225  0.9975884646024484  0.8162035890415599   T   T   T
  0.8607501906354225  0.9975884646024484  0.1837964109584401   T   T   T
  0.1208344765214796  0.1878887080081298  0.0000000000000000   T   T   T
  0.5075994488799128  0.5025433034736978  0.5000000000000000   T   T   T
  0.4840104283770960  0.5087065174655617  0.0000000000000000   T   T   T
  0.5358023171009372  0.0026168961786910  0.5000000000000000   T   T   T
  0.0076465961780741  0.4999065132617040  0.5000000000000000   T   T   T
 
  0.00000000E+00  0.00000000E+00  0.00000000E+00
  0.00000000E+00  0.00000000E+00  0.00000000E+00
  0.00000000E+00  0.00000000E+00  0.00000000E+00
  0.00000000E+00  0.00000000E+00  0.00000000E+00
  0.00000000E+00  0.00000000E+00  0.00000000E+00
  0.00000000E+00  0.00000000E+00  0.00000000E+00
  0.00000000E+00  0.00000000E+00  0.00000000E+00
  0.00000000E+00  0.00000000E+00  0.00000000E+00
  0.00000000E+00  0.00000000E+00  0.00000000E+00
