MAPbI3-cubic                            
   1.01200000000000     
     6.3961747809771712    0.0003529948323386    0.1614829152847160
     0.0003522391626581    6.2907460283042331   -0.0000141513870615
     0.1623069341330589   -0.0000349324015187    6.3121938576001337
   Rb   Pb   I 
     1     1     3
Selective dynamics
Direct
  0.0879693771274225  0.0000131748739303  0.0334895430662536   T   T   T
  0.4541673019395827  0.5000224852376247  0.4768256077675136   T   T   T
  0.4064547845380843  0.4999278876149579  0.9726680246038786   T   T   T
  0.4059547581564495 -0.0000153009944169  0.5008447704618642   T   T   T
  0.9298013589612484  0.4999266175641637  0.4331966488776790   T   T   T
 
  0.00000000E+00  0.00000000E+00  0.00000000E+00
  0.00000000E+00  0.00000000E+00  0.00000000E+00
  0.00000000E+00  0.00000000E+00  0.00000000E+00
  0.00000000E+00  0.00000000E+00  0.00000000E+00
  0.00000000E+00  0.00000000E+00  0.00000000E+00
