MAPbI3-cubic                            
   1.01200000000000     
     6.2431662556541774   -0.0008378521641758    0.3049022887565229
    -0.0008101387893037    6.1779934653308963   -0.0001571880101901
     0.3025192754062338   -0.0001812745709987    6.2881770269323827
   Rb   Pb   I 
     1     1     3
Selective dynamics
Direct
  0.0874398457070307 -0.0000984908648222  0.0640862859895395   T   T   T
  0.4355940511463140  0.5000175937517403  0.4693405060793412   T   T   T
  0.4426430458306423  0.5000956886171067  0.9670055681196352   T   T   T
  0.3910002013174125  0.0000177174054005  0.5203458372271287   T   T   T
  0.9276704367213879  0.4998423553868349  0.3962463973615442   T   T   T
 
  0.00000000E+00  0.00000000E+00  0.00000000E+00
  0.00000000E+00  0.00000000E+00  0.00000000E+00
  0.00000000E+00  0.00000000E+00  0.00000000E+00
  0.00000000E+00  0.00000000E+00  0.00000000E+00
  0.00000000E+00  0.00000000E+00  0.00000000E+00
