Calc_11_MAPbI3-cubic                    
   1.01200000000000     
     6.2616188064833835    0.0000832448775313    0.2881566587895958
     0.0000883565723536    6.3161071328934488    0.0000004332662546
     0.2900885528590977    0.0000097764894544    6.2719848686252897
   C    As   H    Pb   I 
     1     1     6     1     3
Selective dynamics
Direct
  0.8864005174903393  0.0000070242310659  0.9127184041554788   T   T   T
  0.0956028493048577 -0.0000175162021551  0.1138589931212053   T   T   T
  0.9692321939803590  0.0000169799051902  0.7537804565121510   T   T   T
  0.7894210640886642  0.1411283159374301  0.9385657210694719   T   T   T
  0.7893828573381402  0.8588943438152048  0.9385545616996783   T   T   T
  0.2340740711075512  0.1937386737174299  0.0832967875203161   T   T   T
  0.2340493428370178  0.8062454365276607  0.0832855991444910   T   T   T
  0.9837592040581784 -0.0000156605919358  0.3330275836030746   T   T   T
  0.5000000000000000  0.5000000000000000  0.5000000000000000   F   F   F
  0.5000000000000000  0.5000000000000000  0.0000000000000000   F   F   F
  0.5000000000000000  0.0000000000000000  0.5000000000000000   F   F   F
  0.0000000000000000  0.5000000000000000  0.5000000000000000   F   F   F
 
  0.00000000E+00  0.00000000E+00  0.00000000E+00
  0.00000000E+00  0.00000000E+00  0.00000000E+00
  0.00000000E+00  0.00000000E+00  0.00000000E+00
  0.00000000E+00  0.00000000E+00  0.00000000E+00
  0.00000000E+00  0.00000000E+00  0.00000000E+00
  0.00000000E+00  0.00000000E+00  0.00000000E+00
  0.00000000E+00  0.00000000E+00  0.00000000E+00
  0.00000000E+00  0.00000000E+00  0.00000000E+00
  0.00000000E+00  0.00000000E+00  0.00000000E+00
  0.00000000E+00  0.00000000E+00  0.00000000E+00
  0.00000000E+00  0.00000000E+00  0.00000000E+00
  0.00000000E+00  0.00000000E+00  0.00000000E+00
