Calc_5_MAPbI3-cubic                     
   1.01200000000000     
     6.7767306717254074    0.0004148207056738    0.2827317031788640
     0.0005788600378799    6.1720454144742352   -0.0004352018749850
     0.2873723429772996   -0.0004732246363298    6.3012196850615068
   Na   Pb   I 
     1     1     3
Selective dynamics
Direct
  0.2330965044971847  0.0000621731156082  0.0246287882557426   T   T   T
  0.4602403339590391  0.4999245650991368  0.4783689818880723   T   T   T
  0.3670293629023887  0.5000879105183856  0.9827831055930328   T   T   T
  0.3323382524951172 -0.0000620521111156  0.5065192293394863   T   T   T
  0.8916431268690576  0.4998622676742447  0.4247244897008548   T   T   T
 
  0.00000000E+00  0.00000000E+00  0.00000000E+00
  0.00000000E+00  0.00000000E+00  0.00000000E+00
  0.00000000E+00  0.00000000E+00  0.00000000E+00
  0.00000000E+00  0.00000000E+00  0.00000000E+00
  0.00000000E+00  0.00000000E+00  0.00000000E+00
