Calc_10_MAPbI3-cubic                    
   1.01200000000000     
     6.2815764062828778   -0.0001205004756287    0.2036987513897125
    -0.0001066601413693    6.3203121434805674   -0.0000099882787205
     0.2046606613311262   -0.0000014126628871    6.2864906348687670
   C    P    H    Pb   I 
     1     1     6     1     3
Selective dynamics
Direct
  0.8967367224431073  0.0000705312430694  0.9343588436476656   T   T   T
  0.0978639487645144 -0.0000091349386914  0.1193784927939122   T   T   T
  0.9722903621178074  0.0001196634968521  0.7742573840189965   T   T   T
  0.7986829972602210  0.1408622937421877  0.9579867134664738   T   T   T
  0.7986263885692825  0.8593274133761730  0.9578976068457075   T   T   T
  0.2279940978755854  0.1794090625118972  0.0911277554822139   T   T   T
  0.2279223493415994  0.8205236622252615  0.0910595180441267   T   T   T
  0.0072401644320340  0.9999639231844484  0.3269585129760063   T   T   T
  0.5000000000000000  0.5000000000000000  0.5000000000000000   F   F   F
  0.5000000000000000  0.5000000000000000  0.0000000000000000   F   F   F
  0.5000000000000000  0.0000000000000000  0.5000000000000000   F   F   F
  0.0000000000000000  0.5000000000000000  0.5000000000000000   F   F   F
 
  0.00000000E+00  0.00000000E+00  0.00000000E+00
  0.00000000E+00  0.00000000E+00  0.00000000E+00
  0.00000000E+00  0.00000000E+00  0.00000000E+00
  0.00000000E+00  0.00000000E+00  0.00000000E+00
  0.00000000E+00  0.00000000E+00  0.00000000E+00
  0.00000000E+00  0.00000000E+00  0.00000000E+00
  0.00000000E+00  0.00000000E+00  0.00000000E+00
  0.00000000E+00  0.00000000E+00  0.00000000E+00
  0.00000000E+00  0.00000000E+00  0.00000000E+00
  0.00000000E+00  0.00000000E+00  0.00000000E+00
  0.00000000E+00  0.00000000E+00  0.00000000E+00
  0.00000000E+00  0.00000000E+00  0.00000000E+00
