MAPbI3-cubic                            
   1.01200000000000     
     6.1848728092135712    0.0068636905246553    0.0000000000000000
     0.0058657212690648    6.1048333804879675    0.0000000000000000
     0.0000000000000000    0.0000000000000000    6.1049693376308705
   N    H    Pb   I 
     1     4     1     3
Selective dynamics
Direct
 -0.0003386690799578 -0.0003742892497343  0.0000000000000000   T   T   T
  0.0999447820626110  0.8644636590805034  0.0000000000000000   T   T   T
  0.9034164162663760  0.9974098137356512  0.8622790114623747   T   T   T
  0.9034164162663760  0.9974098137356512  0.1377209885376179   T   T   T
  0.0921251253243373  0.1396689678177698  0.0000000000000000   T   T   T
  0.5002770386532164  0.4984167221914779  0.5000000000000000   T   T   T
  0.4035678240331801  0.5054770509096442  0.0000000000000000   T   T   T
  0.5969757434561656 -0.0011928640296655  0.5000000000000000   T   T   T
  0.0003660399891215  0.4987118204589795  0.5000000000000000   T   T   T
 
  0.00000000E+00  0.00000000E+00  0.00000000E+00
  0.00000000E+00  0.00000000E+00  0.00000000E+00
  0.00000000E+00  0.00000000E+00  0.00000000E+00
  0.00000000E+00  0.00000000E+00  0.00000000E+00
  0.00000000E+00  0.00000000E+00  0.00000000E+00
  0.00000000E+00  0.00000000E+00  0.00000000E+00
  0.00000000E+00  0.00000000E+00  0.00000000E+00
  0.00000000E+00  0.00000000E+00  0.00000000E+00
  0.00000000E+00  0.00000000E+00  0.00000000E+00
