Calc_6_MAPbI3-cubic                     
   1.01200000000000     
     6.2018175609393875    0.0369891924342533    0.0000000000000000
     0.0346036777273074    6.2726153575190606    0.0000000000000000
     0.0000000000000000    0.0000000000000000    6.2813822594698960
   N    H    Pb   I 
     1     4     1     3
Selective dynamics
Direct
  0.9807608761206636  0.9880848236161103  0.0000000000000000   T   T   T
  0.0946140925901220  0.8668364262992395  0.0000000000000000   T   T   T
  0.8859235821694534  0.9780634546828065  0.8659619719915349   T   T   T
  0.8859235821694534  0.9780634546828065  0.1340380280084651   T   T   T
  0.0570323313787050  0.1310587780720054  0.0000000000000000   T   T   T
  0.5179082537929375  0.5199971979979560  0.5000000000000000   T   T   T
  0.4341473586890753  0.5815476995905255  0.0000000000000000   T   T   T
  0.6223660824511937  0.0059369640917684  0.5000000000000000   T   T   T
  0.0242675707728784  0.4709518798318780  0.5000000000000000   T   T   T
 
  0.00000000E+00  0.00000000E+00  0.00000000E+00
  0.00000000E+00  0.00000000E+00  0.00000000E+00
  0.00000000E+00  0.00000000E+00  0.00000000E+00
  0.00000000E+00  0.00000000E+00  0.00000000E+00
  0.00000000E+00  0.00000000E+00  0.00000000E+00
  0.00000000E+00  0.00000000E+00  0.00000000E+00
  0.00000000E+00  0.00000000E+00  0.00000000E+00
  0.00000000E+00  0.00000000E+00  0.00000000E+00
  0.00000000E+00  0.00000000E+00  0.00000000E+00
