Calc_6_MAPbI3-cubic                     
   1.01200000000000     
     5.9129384922868633    0.0352662453537207    0.0000000000000000
     0.0329918473089514    5.9804385456908262    0.0000000000000000
     0.0000000000000000    0.0000000000000000    5.9887970876011352
   N    H    Pb   I 
     1     4     1     3
Selective dynamics
Direct
  0.9945495786991443  0.0167657807097563  0.0000000000000000   T   T   T
  0.1101385793194130  0.8863558837435965  0.0000000000000000   T   T   T
  0.8950077616419309  0.0074833811403106  0.8594405438973026   T   T   T
  0.8950077616419309  0.0074833811403106  0.1405594561026973   T   T   T
  0.0784980815230130  0.1655029213436052  0.0000000000000000   T   T   T
  0.5073759972858318  0.4817804315170491  0.5000000000000000   T   T   T
  0.4033580795074904  0.5474732506647769  0.0000000000000000   T   T   T
  0.6088391978486546  0.9744837787105378  0.5000000000000000   T   T   T
  0.0101686926670600  0.4332118698951534  0.5000000000000000   T   T   T
 
  0.00000000E+00  0.00000000E+00  0.00000000E+00
  0.00000000E+00  0.00000000E+00  0.00000000E+00
  0.00000000E+00  0.00000000E+00  0.00000000E+00
  0.00000000E+00  0.00000000E+00  0.00000000E+00
  0.00000000E+00  0.00000000E+00  0.00000000E+00
  0.00000000E+00  0.00000000E+00  0.00000000E+00
  0.00000000E+00  0.00000000E+00  0.00000000E+00
  0.00000000E+00  0.00000000E+00  0.00000000E+00
  0.00000000E+00  0.00000000E+00  0.00000000E+00
