MAPbI3-cubic                            
   1.01200000000000     
     6.2963063207033336   -0.0000364016571748    0.3284041372525341
    -0.0000375759231346    6.3793596619490414    0.0001429603305030
     0.3320877271459444    0.0000990163341143    6.2250832856570755
   C    Sb   H    Pb   I 
     1     1     6     1     3
Selective dynamics
Direct
  0.8624628716876775  0.0000322672065531  0.9146215732883307   T   T   T
  0.0961704405300543  0.0000866626820767  0.1294284779059898   T   T   T
  0.9424977762701768  0.0000393554050511  0.7524396982788799   T   T   T
  0.7666448715420944  0.1399936466119474  0.9442910495531921   T   T   T
  0.7666627657049353  0.8601009300279404  0.9443068543426621   T   T   T
  0.2481641758476943  0.2171074405993623  0.0869905588896606   T   T   T
  0.2482011623184956  0.7830003954260321  0.0870174174028061   T   T   T
  0.9663872854134893  0.0000797863171958  0.3768580607733357   T   T   T
  0.4998877908406232  0.4999472848856817  0.5212747221586923   T   T   T
  0.5302714224393353  0.5000646573933532  0.0235022802416496   T   T   T
  0.4728958403477817  0.0000347831390773  0.5271932475431957   T   T   T
  0.0019969496098971  0.5000680158805140  0.5178164164947110   T   T   T
 
  0.00000000E+00  0.00000000E+00  0.00000000E+00
  0.00000000E+00  0.00000000E+00  0.00000000E+00
  0.00000000E+00  0.00000000E+00  0.00000000E+00
  0.00000000E+00  0.00000000E+00  0.00000000E+00
  0.00000000E+00  0.00000000E+00  0.00000000E+00
  0.00000000E+00  0.00000000E+00  0.00000000E+00
  0.00000000E+00  0.00000000E+00  0.00000000E+00
  0.00000000E+00  0.00000000E+00  0.00000000E+00
  0.00000000E+00  0.00000000E+00  0.00000000E+00
  0.00000000E+00  0.00000000E+00  0.00000000E+00
  0.00000000E+00  0.00000000E+00  0.00000000E+00
  0.00000000E+00  0.00000000E+00  0.00000000E+00
