MAPbI3-cubic                            
   1.01200000000000     
     6.3677781026867200    0.0000653613608001    0.2078867602616222
     0.0000611744218017    6.4039359116322405    0.0002018774643228
     0.2090432558711309    0.0002083022639343    6.4133906426529030
   C    As   H    Pb   I 
     1     1     6     1     3
Selective dynamics
Direct
  0.8810264828931981  0.0000498220320891  0.9232888521840893   T   T   T
  0.0934672703192016  0.0000226231965943  0.1189292256733224   T   T   T
  0.9580299228819054  0.0000621598369204  0.7677910569565324   T   T   T
  0.7861159102887988  0.1395287638880311  0.9485819486243385   T   T   T
  0.7861345976399087  0.8606178765158199  0.9486190289405142   T   T   T
  0.2287814120615167  0.1915082230790286  0.0897026368173523   T   T   T
  0.2287134363949951  0.8086675787499559  0.0897078827537880   T   T   T
  0.9918261573820560  0.0000604298671061  0.3339234931346831   T   T   T
  0.5032256791301806  0.5001245584873875  0.5095022718310093   T   T   T
  0.4919523302868686  0.5000348117128615  0.0097018733299543   T   T   T
  0.4934977217069158  0.9999846865864433  0.4984045156214917   T   T   T
 -0.0007173330982156  0.4999985571951854  0.4969286067195531   T   T   T
 
  0.00000000E+00  0.00000000E+00  0.00000000E+00
  0.00000000E+00  0.00000000E+00  0.00000000E+00
  0.00000000E+00  0.00000000E+00  0.00000000E+00
  0.00000000E+00  0.00000000E+00  0.00000000E+00
  0.00000000E+00  0.00000000E+00  0.00000000E+00
  0.00000000E+00  0.00000000E+00  0.00000000E+00
  0.00000000E+00  0.00000000E+00  0.00000000E+00
  0.00000000E+00  0.00000000E+00  0.00000000E+00
  0.00000000E+00  0.00000000E+00  0.00000000E+00
  0.00000000E+00  0.00000000E+00  0.00000000E+00
  0.00000000E+00  0.00000000E+00  0.00000000E+00
  0.00000000E+00  0.00000000E+00  0.00000000E+00
