MAPbI3-cubic                            
   1.01200000000000     
     6.2827919914225649    0.0164007607143864    0.0000000000000000
     0.0135455431784598    6.3275463957703035    0.0000000000000000
     0.0000000000000000    0.0000000000000000    6.3390523757083130
   As   H    Pb   I 
     1     4     1     3
Selective dynamics
Direct
  0.9898715078877848  0.0009012973097946  0.0000000000000000   T   T   T
  0.1396815142694831  0.8156661508875257  0.0000000000000000   T   T   T
  0.8507916329093367  0.9963828619334324  0.8064421804241038   T   T   T
  0.8507916329093367  0.9963828619334324  0.1935578195758966   T   T   T
  0.1217266858499367  0.1972772829897455  0.0000000000000000   T   T   T
  0.5079845887926316  0.5061235054676799  0.5000000000000000   T   T   T
  0.4760894824549308  0.5052304196855826  0.0000000000000000   T   T   T
  0.5551121569952420  0.0047031762346172  0.5000000000000000   T   T   T
  0.0108945280658007  0.4978731224232865  0.5000000000000000   T   T   T
 
  0.00000000E+00  0.00000000E+00  0.00000000E+00
  0.00000000E+00  0.00000000E+00  0.00000000E+00
  0.00000000E+00  0.00000000E+00  0.00000000E+00
  0.00000000E+00  0.00000000E+00  0.00000000E+00
  0.00000000E+00  0.00000000E+00  0.00000000E+00
  0.00000000E+00  0.00000000E+00  0.00000000E+00
  0.00000000E+00  0.00000000E+00  0.00000000E+00
  0.00000000E+00  0.00000000E+00  0.00000000E+00
  0.00000000E+00  0.00000000E+00  0.00000000E+00
