Calc_6_MAPbI3-cubic                     
   1.01200000000000     
     6.2184974445721961    0.5790761577192959    0.0000000000000000
     0.5704491443234319    6.3071881606198987    0.0000000000000000
     0.0000000000000000    0.0000000000000000    6.1238564498120436
   N    H    Pb   I 
     1     4     1     3
Selective dynamics
Direct
  0.9634240963589569  0.9947582317138809  0.0000000000000000   T   T   T
  0.0971799603143705  0.8720616531701568  0.0000000000000000   T   T   T
  0.8711969802182071  0.9856792436694954  0.8615199910684876   T   T   T
  0.8711969802182071  0.9856792436694954  0.1384800089315122   T   T   T
  0.0157751444987497  0.1376874833316683  0.0000000000000000   T   T   T
  0.5373695106157199  0.5130379770907298  0.5000000000000000   T   T   T
  0.4637391934997243  0.6002103983300938  0.0000000000000000   T   T   T
  0.6407587054372103  0.0094795835840850  0.5000000000000000   T   T   T
  0.0423031589733233  0.4219468643055054  0.5000000000000000   T   T   T
 
  0.00000000E+00  0.00000000E+00  0.00000000E+00
  0.00000000E+00  0.00000000E+00  0.00000000E+00
  0.00000000E+00  0.00000000E+00  0.00000000E+00
  0.00000000E+00  0.00000000E+00  0.00000000E+00
  0.00000000E+00  0.00000000E+00  0.00000000E+00
  0.00000000E+00  0.00000000E+00  0.00000000E+00
  0.00000000E+00  0.00000000E+00  0.00000000E+00
  0.00000000E+00  0.00000000E+00  0.00000000E+00
  0.00000000E+00  0.00000000E+00  0.00000000E+00
