Calc_12_MAPbI3-cubic                    
   1.01200000000000     
     6.2087078192300122   -0.0000108710132156    0.0379871668991318
    -0.0000102333425384    6.1421497569408023    0.0000118966077564
     0.0375170555509922    0.0000118564591272    6.2609030228239639
   C    N    H    Pb   I 
     1     1     6     1     3
Selective dynamics
Direct
  0.9035780373456758  0.9999511297296071  0.9780419800791197   T   T   T
  0.1313743711111271  0.9998986176341915  0.0420782328773983   T   T   T
  0.8969696053682763  0.9998638641418578  0.8053046170139377   T   T   T
  0.8276379944316870  0.1450794030214704  0.0421969614248735   T   T   T
  0.8275288583710866  0.8549582957878028  0.0423473335384435   T   T   T
  0.2117891315908958  0.1348067320753175  0.9858166916080308   T   T   T
  0.2116956398630586  0.8648894382452762  0.9859423359070277   T   T   T
  0.1484185337318374  0.9999706887945620  0.2049233620016742   T   T   T
  0.4813591761695382  0.4999611259713604  0.4780034532901453   T   T   T
  0.4453236574518990  0.4999461346847405  0.9763276966107574   T   T   T
  0.4253678574332979  0.9999686362005999  0.5308302578759757   T   T   T
  0.9669385251315675  0.5000083807131657  0.4239748177725866   T   T   T
 
  0.00000000E+00  0.00000000E+00  0.00000000E+00
  0.00000000E+00  0.00000000E+00  0.00000000E+00
  0.00000000E+00  0.00000000E+00  0.00000000E+00
  0.00000000E+00  0.00000000E+00  0.00000000E+00
  0.00000000E+00  0.00000000E+00  0.00000000E+00
  0.00000000E+00  0.00000000E+00  0.00000000E+00
  0.00000000E+00  0.00000000E+00  0.00000000E+00
  0.00000000E+00  0.00000000E+00  0.00000000E+00
  0.00000000E+00  0.00000000E+00  0.00000000E+00
  0.00000000E+00  0.00000000E+00  0.00000000E+00
  0.00000000E+00  0.00000000E+00  0.00000000E+00
  0.00000000E+00  0.00000000E+00  0.00000000E+00
