Calc1_MAPbI3-cubic                      
   1.01200000000000     
     6.1213775173774749    0.0163151499976352    0.0000000000000000
     0.0129651428806012    6.1348120128806300    0.0000000000000000
     0.0000000000000000    0.0000000000000000    6.1277568972200607
   Sb   H    Pb   I 
     1     4     1     3
Selective dynamics
Direct
  0.0011180391308416  0.0028798649801059  0.0000000000000000   T   T   T
  0.1618299736219756  0.7818212883347651  0.0000000000000000   T   T   T
  0.8418458211944373  0.0029337797544982  0.7782103068988214   T   T   T
  0.8418458211944373  0.0029337797544982  0.2217896931011786   T   T   T
  0.1607319572181566  0.2233383586160121  0.0000000000000000   T   T   T
  0.4972025511846278  0.5007905602245822  0.5000000000000000   T   T   T
  0.5572088431629558  0.4992497403684929  0.0000000000000000   T   T   T
  0.4431402666695140  0.0011023368540351  0.5000000000000000   T   T   T
  0.9980204567575367  0.5054909699781277  0.5000000000000000   T   T   T
 
  0.00000000E+00  0.00000000E+00  0.00000000E+00
  0.00000000E+00  0.00000000E+00  0.00000000E+00
  0.00000000E+00  0.00000000E+00  0.00000000E+00
  0.00000000E+00  0.00000000E+00  0.00000000E+00
  0.00000000E+00  0.00000000E+00  0.00000000E+00
  0.00000000E+00  0.00000000E+00  0.00000000E+00
  0.00000000E+00  0.00000000E+00  0.00000000E+00
  0.00000000E+00  0.00000000E+00  0.00000000E+00
  0.00000000E+00  0.00000000E+00  0.00000000E+00
