MAPbI3-cubic                            
   1.01200000000000     
     6.2400313778868046   -0.0001868338507313    0.1132006384459717
    -0.0001878687048243    6.2540712037278894   -0.0000850397501000
     0.1137212625705875   -0.0000887779278447    6.2370109119414403
   C    P    H    Pb   I 
     1     1     6     1     3
Selective dynamics
Direct
  0.8937973847831028  0.0000639078964857  0.9322168642239047   T   T   T
  0.0996607531713744  0.9999880035194891  0.1208958535352604   T   T   T
  0.9662769239693223  0.0001434483877553  0.7714624950251047   T   T   T
  0.7955608859755244  0.1425262571241286  0.9545012266456553   T   T   T
  0.7955037653355681  0.8577496024464002  0.9543824702214800   T   T   T
  0.2300068878702698  0.1815626782606766  0.0947099445568875   T   T   T
  0.2298965227559614  0.8183174210122383  0.0946175460116713   T   T   T
  0.0131394821321867  0.9999429127397649  0.3294818474107722   T   T   T
  0.5015900339334201  0.4999954883561942  0.5021609935390295   T   T   T
  0.5010745007815680  0.5000040452011140  0.0015488770132859   T   T   T
  0.4993219411052020 -0.0000101932803267  0.4999412312288084   T   T   T
  0.0009977552191369  0.4999909676020599  0.4979646754331837   T   T   T
 
  0.00000000E+00  0.00000000E+00  0.00000000E+00
  0.00000000E+00  0.00000000E+00  0.00000000E+00
  0.00000000E+00  0.00000000E+00  0.00000000E+00
  0.00000000E+00  0.00000000E+00  0.00000000E+00
  0.00000000E+00  0.00000000E+00  0.00000000E+00
  0.00000000E+00  0.00000000E+00  0.00000000E+00
  0.00000000E+00  0.00000000E+00  0.00000000E+00
  0.00000000E+00  0.00000000E+00  0.00000000E+00
  0.00000000E+00  0.00000000E+00  0.00000000E+00
  0.00000000E+00  0.00000000E+00  0.00000000E+00
  0.00000000E+00  0.00000000E+00  0.00000000E+00
  0.00000000E+00  0.00000000E+00  0.00000000E+00
