Calc_7_MAPbI3-cubic                     
   1.01200000000000     
     6.1694120932774865   -0.0121253539533764    0.0000000000000000
    -0.0146510414904276    6.2243548308218211    0.0000000000000000
     0.0000000000000000    0.0000000000000000    6.2244794284293476
   P    H    Pb   I 
     1     4     1     3
Selective dynamics
Direct
  0.9938803119994504  0.0002886089360477  0.0000000000000000   T   T   T
  0.1330475092504620  0.8222323158249146  0.0000000000000000   T   T   T
  0.8609579487298836  0.9962343747159245  0.8161076136441783   T   T   T
  0.8609579487298836  0.9962343747159245  0.1838923863558218   T   T   T
  0.1213305201326918  0.1876331706766442  0.0000000000000000   T   T   T
  0.5075881754857133  0.5028617639077611  0.5000000000000000   T   T   T
  0.4792834093253334  0.5098275624681269  0.0000000000000000   T   T   T
  0.5379795580076128  0.0025513805393674  0.5000000000000000   T   T   T
  0.0079183484734520  0.5026771270803844  0.5000000000000000   T   T   T
 
  0.00000000E+00  0.00000000E+00  0.00000000E+00
  0.00000000E+00  0.00000000E+00  0.00000000E+00
  0.00000000E+00  0.00000000E+00  0.00000000E+00
  0.00000000E+00  0.00000000E+00  0.00000000E+00
  0.00000000E+00  0.00000000E+00  0.00000000E+00
  0.00000000E+00  0.00000000E+00  0.00000000E+00
  0.00000000E+00  0.00000000E+00  0.00000000E+00
  0.00000000E+00  0.00000000E+00  0.00000000E+00
  0.00000000E+00  0.00000000E+00  0.00000000E+00
