Calc_11_MAPbI3-cubic                    
   1.01200000000000     
     6.2916156350756722    0.0002863674439823    0.2726538607644731
     0.0003007618255430    6.3375779796273077    0.0003796825008381
     0.2746036327170921    0.0004029995022137    6.3006299639845089
   C    As   H    Pb   I 
     1     1     6     1     3
Selective dynamics
Direct
  0.8834923916991020  0.0000183185948597  0.9204758090812775   T   T   T
  0.0953801813232629  0.0000216049960337  0.1177453488188779   T   T   T
  0.9645407325251758  0.0000051641279940  0.7621232515935396   T   T   T
  0.7871251140739588  0.1406227875801084  0.9466817965753523   T   T   T
  0.7871563444086404  0.8593849372286274  0.9467135735660334   T   T   T
  0.2326575509065230  0.1927045802385374  0.0851225027133662   T   T   T
  0.2327311995659855  0.8072981780498746  0.0851557368232491   T   T   T
  0.9894112920711599  0.0000472807210192  0.3371815701925356   T   T   T
  0.5000000000000000  0.5000000000000000  0.5000000000000000   F   F   F
  0.5000000000000000  0.5000000000000000  0.0000000000000000   F   F   F
  0.5000000000000000  0.0000000000000000  0.5000000000000000   F   F   F
  0.0000000000000000  0.5000000000000000  0.5000000000000000   F   F   F
 
  0.00000000E+00  0.00000000E+00  0.00000000E+00
  0.00000000E+00  0.00000000E+00  0.00000000E+00
  0.00000000E+00  0.00000000E+00  0.00000000E+00
  0.00000000E+00  0.00000000E+00  0.00000000E+00
  0.00000000E+00  0.00000000E+00  0.00000000E+00
  0.00000000E+00  0.00000000E+00  0.00000000E+00
  0.00000000E+00  0.00000000E+00  0.00000000E+00
  0.00000000E+00  0.00000000E+00  0.00000000E+00
  0.00000000E+00  0.00000000E+00  0.00000000E+00
  0.00000000E+00  0.00000000E+00  0.00000000E+00
  0.00000000E+00  0.00000000E+00  0.00000000E+00
  0.00000000E+00  0.00000000E+00  0.00000000E+00
