Calc_12_MAPbI3-cubic                            
   1.01200000000000     
     6.3240520277382286   -0.0000263989423518    0.0332783011772695
    -0.0000248536222641    6.2758075378866618   -0.0000228836266470
     0.0329415215883757   -0.0000233166623885    6.3685196191855020
   C    N    H    Pb   I 
     1     1     6     1     3
Selective dynamics
Direct
  0.9106711263762519  0.9999680809075067  0.9806288384738326   T   T   T
  0.1359225043718825  0.9998946140441785  0.0374776299644153   T   T   T
  0.8990527053186939  0.9998634542518948  0.8110830262678864   T   T   T
  0.8373523742013544  0.1418121163635800  0.0454011397039851   T   T   T
  0.8372073189539656  0.8582802759874379  0.0455842635367843   T   T   T
  0.2131542923644867  0.1328143178016612  0.9806316700544274   T   T   T
  0.2130487589404544  0.8668599029775232  0.9807456285306886   T   T   T
  0.1581614852814678  0.9999591536833269  0.1975238317519432   T   T   T
  0.4719851957188547  0.4999575916434711  0.4820746548277094   T   T   T
  0.4239724600595431  0.4999221186031662  0.9767839323877963   T   T   T
  0.4274110903398868  0.9999633783378050  0.5109991531581507   T   T   T
  0.9500420760731049  0.5000074423983965  0.4468539713423424   T   T   T
 
  0.00000000E+00  0.00000000E+00  0.00000000E+00
  0.00000000E+00  0.00000000E+00  0.00000000E+00
  0.00000000E+00  0.00000000E+00  0.00000000E+00
  0.00000000E+00  0.00000000E+00  0.00000000E+00
  0.00000000E+00  0.00000000E+00  0.00000000E+00
  0.00000000E+00  0.00000000E+00  0.00000000E+00
  0.00000000E+00  0.00000000E+00  0.00000000E+00
  0.00000000E+00  0.00000000E+00  0.00000000E+00
  0.00000000E+00  0.00000000E+00  0.00000000E+00
  0.00000000E+00  0.00000000E+00  0.00000000E+00
  0.00000000E+00  0.00000000E+00  0.00000000E+00
  0.00000000E+00  0.00000000E+00  0.00000000E+00
