Calc_12_MAPbI3-cubic                    
   1.01200000000000     
     6.2220118496482790   -0.0000791554613323    0.0429964994311675
    -0.0000768381819479    6.1904647005902280   -0.0000469776032148
     0.0426561115900407   -0.0000479900099045    6.2694489368384581
   C    N    H    Pb   I 
     1     1     6     1     3
Selective dynamics
Direct
  0.9074798089648293  0.9999627637640571  0.9792890067675738   T   T   T
  0.1355883472521525  0.9999063300790146  0.0383626965422335   T   T   T
  0.8970993462503566  0.9998587294598632  0.8071931065946715   T   T   T
  0.8324347629961638  0.1435556661665702  0.0446733291766458   T   T   T
  0.8323009768392644  0.8565277772062339  0.0448486883626553   T   T   T
  0.2149406172452936  0.1341139125795943  0.9812181537057424   T   T   T
  0.2148405086501132  0.8655721500113926  0.9813271708332539   T   T   T
  0.1569276404933271  0.9999632233283782  0.2006203062179351   T   T   T
  0.4694554837992958  0.4999539049441364  0.4796214918220800   T   T   T
  0.4295263990640399  0.4999180695755883  0.9771611885412494   T   T   T
  0.4299810109497480  0.9999586703490554  0.5167996089813752   T   T   T
  0.9574064854953674  0.5000112495360691  0.4446729924545497   T   T   T
 
  0.00000000E+00  0.00000000E+00  0.00000000E+00
  0.00000000E+00  0.00000000E+00  0.00000000E+00
  0.00000000E+00  0.00000000E+00  0.00000000E+00
  0.00000000E+00  0.00000000E+00  0.00000000E+00
  0.00000000E+00  0.00000000E+00  0.00000000E+00
  0.00000000E+00  0.00000000E+00  0.00000000E+00
  0.00000000E+00  0.00000000E+00  0.00000000E+00
  0.00000000E+00  0.00000000E+00  0.00000000E+00
  0.00000000E+00  0.00000000E+00  0.00000000E+00
  0.00000000E+00  0.00000000E+00  0.00000000E+00
  0.00000000E+00  0.00000000E+00  0.00000000E+00
  0.00000000E+00  0.00000000E+00  0.00000000E+00
