Calc_12_MAPbI3-cubic                    
   1.01200000000000     
     6.2351401736509038   -0.0005078869782087    0.0401146664180835
    -0.0005059209458189    6.2145309812105012    0.0007796820917035
     0.0397134946235969    0.0007875603976945    6.2946509590918485
   C    N    H    Pb   I 
     1     1     6     1     3
Selective dynamics
Direct
  0.9082810673854327  0.9999632053612343  0.9792533821535543   T   T   T
  0.1357967544767326  0.9999222243364948  0.0382550290655762   T   T   T
  0.8982793401861875  0.9999317870076947  0.8079086422222903   T   T   T
  0.8336727868960917  0.1429535160801588  0.0443784070592258   T   T   T
  0.8335180046378035  0.8570847310222310  0.0445294170596081   T   T   T
  0.2147143802370840  0.1336874991963867  0.9813882950919055   T   T   T
  0.2145884496148378  0.8660719663301865  0.9814949917652364   T   T   T
  0.1568171132196629  0.9999342726967135  0.1998821315423324   T   T   T
  0.4673169358703342  0.4999352439880889  0.4793665176591359   T   T   T
  0.4282656481515736  0.4999473896854539  0.9777756769843893   T   T   T
  0.4296481143309098  0.9999360057912252  0.5156286582102971   T   T   T
  0.9570827929932960  0.4999346055040854  0.4459265911864179   T   T   T
 
  0.00000000E+00  0.00000000E+00  0.00000000E+00
  0.00000000E+00  0.00000000E+00  0.00000000E+00
  0.00000000E+00  0.00000000E+00  0.00000000E+00
  0.00000000E+00  0.00000000E+00  0.00000000E+00
  0.00000000E+00  0.00000000E+00  0.00000000E+00
  0.00000000E+00  0.00000000E+00  0.00000000E+00
  0.00000000E+00  0.00000000E+00  0.00000000E+00
  0.00000000E+00  0.00000000E+00  0.00000000E+00
  0.00000000E+00  0.00000000E+00  0.00000000E+00
  0.00000000E+00  0.00000000E+00  0.00000000E+00
  0.00000000E+00  0.00000000E+00  0.00000000E+00
  0.00000000E+00  0.00000000E+00  0.00000000E+00
