Calc_6_MAPbI3-cubic                     
   1.01200000000000     
     6.3107883911270584    0.0340024868513934    0.0000000000000000
     0.0329052395429975    6.1829208643899563    0.0000000000000000
     0.0000000000000000    0.0000000000000000    6.1247189671025799
   N    H    Pb   I 
     1     4     1     3
Selective dynamics
Direct
  0.9274386023878493  0.9985944522599595  0.0000000000000000   T   T   T
  0.0162032889268201  0.8601572220821415  0.0000000000000000   T   T   T
  0.8329617563411095  1.0008813483588563  0.8620475090824411   T   T   T
  0.8329617563411095  1.0008813483588563  0.1379524909175462   T   T   T
  0.0197901544925377  0.1324861393615193  0.0000000000000000   T   T   T
  0.5476389298300076  0.5083342683726151  0.5000000000000000   T   T   T
  0.6261606964690373  0.5045864400773792  0.0000000000000000   T   T   T
  0.6268434802267393  0.0080084053741064  0.5000000000000000   T   T   T
  0.0729450651192671  0.5066110546196704  0.5000000000000000   T   T   T
 
  0.00000000E+00  0.00000000E+00  0.00000000E+00
  0.00000000E+00  0.00000000E+00  0.00000000E+00
  0.00000000E+00  0.00000000E+00  0.00000000E+00
  0.00000000E+00  0.00000000E+00  0.00000000E+00
  0.00000000E+00  0.00000000E+00  0.00000000E+00
  0.00000000E+00  0.00000000E+00  0.00000000E+00
  0.00000000E+00  0.00000000E+00  0.00000000E+00
  0.00000000E+00  0.00000000E+00  0.00000000E+00
  0.00000000E+00  0.00000000E+00  0.00000000E+00
