Calc_10_MAPbI3-cubic                    
   1.01200000000000     
     6.2766890330805376   -0.0001481951212967    0.2275417376065607
    -0.0001328031726610    6.3191943390101546   -0.0000499937533220
     0.2285356649886160   -0.0000410604244175    6.2812113998738672
   C    P    H    Pb   I 
     1     1     6     1     3
Selective dynamics
Direct
  0.8978091465497735  0.0000634431889021  0.9332914622206017   T   T   T
  0.0974582673318111  0.0000021875086638  0.1189037659908830   T   T   T
  0.9746156636347734  0.0001121696495960  0.7731406563641058   T   T   T
  0.7996581324013727  0.1407853504811399  0.9572447192907363   T   T   T
  0.7996166937137412  0.8593887846604318  0.9571661284228246   T   T   T
  0.2278274689362780  0.1794966525314265  0.0911578046320187   T   T   T
  0.2277497575160633  0.8204615993918161  0.0910924250146377   T   T   T
  0.0045528852407726  0.9999658576927828  0.3264568210222296   T   T   T
  0.5028491329852023  0.4999977792398462  0.5051394241467770   T   T   T
  0.5051156219482350  0.5000154273803353  0.0034830586208032   T   T   T
  0.4901882462449633  0.9999966229534470  0.5012794944204577   T   T   T
  0.9999160143011534  0.4999815401628096  0.4946690671290228   T   T   T
 
  0.00000000E+00  0.00000000E+00  0.00000000E+00
  0.00000000E+00  0.00000000E+00  0.00000000E+00
  0.00000000E+00  0.00000000E+00  0.00000000E+00
  0.00000000E+00  0.00000000E+00  0.00000000E+00
  0.00000000E+00  0.00000000E+00  0.00000000E+00
  0.00000000E+00  0.00000000E+00  0.00000000E+00
  0.00000000E+00  0.00000000E+00  0.00000000E+00
  0.00000000E+00  0.00000000E+00  0.00000000E+00
  0.00000000E+00  0.00000000E+00  0.00000000E+00
  0.00000000E+00  0.00000000E+00  0.00000000E+00
  0.00000000E+00  0.00000000E+00  0.00000000E+00
  0.00000000E+00  0.00000000E+00  0.00000000E+00
