Calc_6_MAPbI3-cubic                     
   1.01200000000000     
     6.3287754784676649    0.0317964313687707    0.0000000000000000
     0.0297864717586382    6.3235525031849411    0.0000000000000000
     0.0000000000000000    0.0000000000000000    6.2513039534825596
   N    H    Pb   I 
     1     4     1     3
Selective dynamics
Direct
  0.9295582239619551  0.9985785670306722  0.0000000000000000   T   T   T
  0.0198727594187585  0.8645481974803594  0.0000000000000000   T   T   T
  0.8359575130877126  1.0002985913991236  0.8643882529392595   T   T   T
  0.8359575130877126  1.0002985913991236  0.1356117470607350   T   T   T
  0.0221859502652679  0.1291791565386902  0.0000000000000000   T   T   T
  0.5645796947447423  0.5071732987460938  0.5000000000000000   T   T   T
  0.5836661676892730  0.5071481640534722  0.0000000000000000   T   T   T
  0.6311001031102650  0.0072471465602753  0.5000000000000000   T   T   T
  0.0800658047688045  0.5060689656573022  0.5000000000000000   T   T   T
 
  0.00000000E+00  0.00000000E+00  0.00000000E+00
  0.00000000E+00  0.00000000E+00  0.00000000E+00
  0.00000000E+00  0.00000000E+00  0.00000000E+00
  0.00000000E+00  0.00000000E+00  0.00000000E+00
  0.00000000E+00  0.00000000E+00  0.00000000E+00
  0.00000000E+00  0.00000000E+00  0.00000000E+00
  0.00000000E+00  0.00000000E+00  0.00000000E+00
  0.00000000E+00  0.00000000E+00  0.00000000E+00
  0.00000000E+00  0.00000000E+00  0.00000000E+00
