MAPbI3-cubic                            
   1.01200000000000     
     6.2717692397815465   -0.0001145403650464    0.1188793085008934
    -0.0001150318768254    6.2886293247550968   -0.0001150467871832
     0.1194210729345992   -0.0001152931902035    6.2647194531985360
   C    P    H    Pb   I 
     1     1     6     1     3
Selective dynamics
Direct
  0.8938476316769363  0.0000909550927371  0.9321872686728997   T   T   T
  0.0986695573350137  0.9999691499961619  0.1198943588403867   T   T   T
  0.9659325678017562  0.0001281877221049  0.7719610389451314   T   T   T
  0.7961718056648662  0.1416508658700914  0.9545732354031355   T   T   T
  0.7960832724053660  0.8585475787489039  0.9544677656898306   T   T   T
  0.2286834593560040  0.1804316086189534  0.0941227978395523   T   T   T
  0.2285736869825793  0.8194815180140443  0.0940474756658533   T   T   T
  0.0130518547529742  0.9999528063564133  0.3278809729107257   T   T   T
  0.5015829340662841  0.5000025723075533  0.5022107949776109   T   T   T
  0.5011249251672681  0.5000082230658330  0.0013427483474882   T   T   T
  0.5003282195504241 -0.0000035396787308  0.5009160154774034   T   T   T
  0.0008352831648417  0.4999955019944539  0.4984263516979325   T   T   T
 
  0.00000000E+00  0.00000000E+00  0.00000000E+00
  0.00000000E+00  0.00000000E+00  0.00000000E+00
  0.00000000E+00  0.00000000E+00  0.00000000E+00
  0.00000000E+00  0.00000000E+00  0.00000000E+00
  0.00000000E+00  0.00000000E+00  0.00000000E+00
  0.00000000E+00  0.00000000E+00  0.00000000E+00
  0.00000000E+00  0.00000000E+00  0.00000000E+00
  0.00000000E+00  0.00000000E+00  0.00000000E+00
  0.00000000E+00  0.00000000E+00  0.00000000E+00
  0.00000000E+00  0.00000000E+00  0.00000000E+00
  0.00000000E+00  0.00000000E+00  0.00000000E+00
  0.00000000E+00  0.00000000E+00  0.00000000E+00
