Calc_5_MAPbI3-cubic                     
   1.01200000000000     
     6.2647585461555293   -0.0000203318006221   -0.0474453982010579
    -0.0000258163722875    6.2264698785672499   -0.0004976752156248
    -0.0540394388898807   -0.0005770493635898    6.2137390038495024
   Na   Pb   I 
     1     1     3
Selective dynamics
Direct
  0.3124860213160464 -0.0000511828285664 -0.0132601183112746   T   T   T
  0.4076655763597961  0.4999547207609903  0.4857717630872271   T   T   T
  0.3382096427332609  0.5000074252311797  0.9844024057930558   T   T   T
  0.3434613036343000  0.9999890754940489  0.4877006744919651   T   T   T
  0.8825250366793845  0.4999748256386067  0.4724098697162156   T   T   T
 
  0.00000000E+00  0.00000000E+00  0.00000000E+00
  0.00000000E+00  0.00000000E+00  0.00000000E+00
  0.00000000E+00  0.00000000E+00  0.00000000E+00
  0.00000000E+00  0.00000000E+00  0.00000000E+00
  0.00000000E+00  0.00000000E+00  0.00000000E+00
