Calc_11_MAPbI3-cubic                    
   1.01200000000000     
     6.2422457724730549    0.0000170083308762    0.2792830182785149
     0.0000295078654899    6.2798649425725905   -0.0001010788915240
     0.2798630311177742   -0.0000900227509241    6.2522870205937204
   C    As   H    Pb   I 
     1     1     6     1     3
Selective dynamics
Direct
  0.8988706245922549 -0.0000463456279733  0.8858005936272974   T   T   T
  0.0844336207947225 -0.0000688696151173  0.1117564204332815   T   T   T
  0.9996976877264410 -0.0000462225899239  0.7356395701131729   T   T   T
  0.8002059563920028  0.1420235536762449  0.8999215714126980   T   T   T
  0.8002040775361174  0.8579067419980986  0.8999270593170362   T   T   T
  0.2240161014782597  0.1942767898717169  0.0952729392546143   T   T   T
  0.2240405146046872  0.8056166456884943  0.0952662814983930   T   T   T
  0.9525580768767565 -0.0000333412692111  0.3215946334920793   T   T   T
  0.5000000000000000  0.5000000000000000  0.5000000000000000   F   F   F
  0.5000000000000000  0.5000000000000000  0.0000000000000000   F   F   F
  0.5000000000000000  0.0000000000000000  0.5000000000000000   F   F   F
  0.0000000000000000  0.5000000000000000  0.5000000000000000   F   F   F
 
  0.00000000E+00  0.00000000E+00  0.00000000E+00
  0.00000000E+00  0.00000000E+00  0.00000000E+00
  0.00000000E+00  0.00000000E+00  0.00000000E+00
  0.00000000E+00  0.00000000E+00  0.00000000E+00
  0.00000000E+00  0.00000000E+00  0.00000000E+00
  0.00000000E+00  0.00000000E+00  0.00000000E+00
  0.00000000E+00  0.00000000E+00  0.00000000E+00
  0.00000000E+00  0.00000000E+00  0.00000000E+00
  0.00000000E+00  0.00000000E+00  0.00000000E+00
  0.00000000E+00  0.00000000E+00  0.00000000E+00
  0.00000000E+00  0.00000000E+00  0.00000000E+00
  0.00000000E+00  0.00000000E+00  0.00000000E+00
