MAPbI3-cubic                            
   1.01200000000000     
     6.1006285530917141    0.0410583605099720    0.0000000000000000
     0.0397445694797534    6.1303075695886786    0.0000000000000000
     0.0000000000000000    0.0000000000000000    6.1327250026511102
   Sb   H    Pb   I 
     1     4     1     3
Selective dynamics
Direct
  0.0006358076082756  1.0012730152714984  0.0000000000000000   T   T   T
  0.1863189128974954  0.7961781182735702  0.0000000000000000   T   T   T
  0.8394306007106942  0.9861691592795618  0.7789164379706844   T   T   T
  0.8394306007106942  0.9861691592795618  0.2210835620293184   T   T   T
  0.1348021937306386  0.2380587220299676  0.0000000000000000   T   T   T
  0.5009702436249635  0.5001854773853857  0.5000000000000000   T   T   T
  0.5527601819235248  0.4980036072929808  0.0000000000000000   T   T   T
  0.4476956522290201 -0.0002796903860659  0.5000000000000000   T   T   T
  1.0008100990746025  0.4999082259155695  0.5000000000000000   T   T   T
 
  0.00000000E+00  0.00000000E+00  0.00000000E+00
  0.00000000E+00  0.00000000E+00  0.00000000E+00
  0.00000000E+00  0.00000000E+00  0.00000000E+00
  0.00000000E+00  0.00000000E+00  0.00000000E+00
  0.00000000E+00  0.00000000E+00  0.00000000E+00
  0.00000000E+00  0.00000000E+00  0.00000000E+00
  0.00000000E+00  0.00000000E+00  0.00000000E+00
  0.00000000E+00  0.00000000E+00  0.00000000E+00
  0.00000000E+00  0.00000000E+00  0.00000000E+00
