Calc_4_MAPbI3-cubic                     
   1.01200000000000     
     6.5141709360113582   -0.0010176896404898    0.6039062401285048
    -0.0010478312812342    5.9500809938337680   -0.0002433236777107
     0.5559119414596017   -0.0001529425364630    6.3834610598663195
   K    Pb   I 
     1     1     3
Selective dynamics
Direct
  0.1195102574064116 -0.0000500182047476  0.0739417920984198   T   T   T
  0.4618765256541590  0.5000215200675598  0.4781825272119550   T   T   T
  0.4619304681612741  0.5000810317433740  0.9670026556248242   T   T   T
  0.3177074280705666  0.0000381921902760  0.5358284576320389   T   T   T
  0.9233229014303759  0.4997841384997976  0.3620691622099509   T   T   T
 
  0.00000000E+00  0.00000000E+00  0.00000000E+00
  0.00000000E+00  0.00000000E+00  0.00000000E+00
  0.00000000E+00  0.00000000E+00  0.00000000E+00
  0.00000000E+00  0.00000000E+00  0.00000000E+00
  0.00000000E+00  0.00000000E+00  0.00000000E+00
