Calc_10_MAPbI3-cubic                    
   1.01200000000000     
     6.2375556876606879   -0.0001725183718307    0.2282011994949124
    -0.0001521327228587    6.2757484901851548   -0.0001472357983637
     0.2285669071051286   -0.0001343526156609    6.2212439815031724
   C    P    H    Pb   I 
     1     1     6     1     3
Selective dynamics
Direct
  0.8968256984828564  0.0000695718154082  0.9276792796951737   T   T   T
  0.0860111761280914 -0.0000150018288612  0.1268635800995958   T   T   T
  0.9837053142115466  0.0001001577679529  0.7699268313928092   T   T   T
  0.7972947262581752  0.1419058099335579  0.9465273342853477   T   T   T
  0.7972622404877663  0.8582450778204099  0.9464364047117659   T   T   T
  0.2175516050270857  0.1800239094301164  0.1056464242640211   T   T   T
  0.2174927786724095  0.8199279571934081  0.1055549139134388   T   T   T
 -0.0179857385690374  0.9999807700467940  0.3320243439292783   T   T   T
  0.5000000000000000  0.5000000000000000  0.5000000000000000   F   F   F
  0.5000000000000000  0.5000000000000000  0.0000000000000000   F   F   F
  0.5000000000000000  0.0000000000000000  0.5000000000000000   F   F   F
  0.0000000000000000  0.5000000000000000  0.5000000000000000   F   F   F
 
  0.00000000E+00  0.00000000E+00  0.00000000E+00
  0.00000000E+00  0.00000000E+00  0.00000000E+00
  0.00000000E+00  0.00000000E+00  0.00000000E+00
  0.00000000E+00  0.00000000E+00  0.00000000E+00
  0.00000000E+00  0.00000000E+00  0.00000000E+00
  0.00000000E+00  0.00000000E+00  0.00000000E+00
  0.00000000E+00  0.00000000E+00  0.00000000E+00
  0.00000000E+00  0.00000000E+00  0.00000000E+00
  0.00000000E+00  0.00000000E+00  0.00000000E+00
  0.00000000E+00  0.00000000E+00  0.00000000E+00
  0.00000000E+00  0.00000000E+00  0.00000000E+00
  0.00000000E+00  0.00000000E+00  0.00000000E+00
