MAPbI3-cubic                            
   1.01200000000000     
     6.1456428370376193    0.0045971940447244    0.0000000000000000
     0.0022496830114766    6.1891613439769646    0.0000000000000000
     0.0000000000000000    0.0000000000000000    6.1881819679838168
   P    H    Pb   I 
     1     4     1     3
Selective dynamics
Direct
  0.9991154145183891  0.0015644724543476  0.0000000000000000   T   T   T
  0.1389739786615652  0.8216106954857320  0.0000000000000000   T   T   T
  0.8665903609076531  0.9964490527957984  0.8149516535024439   T   T   T
  0.8665903609076531  0.9964490527957984  0.1850483464975560   T   T   T
  0.1249791781779769  0.1911627036726256  0.0000000000000000   T   T   T
  0.5001026623802031  0.4991177303457739  0.5000000000000000   T   T   T
  0.4892911002263097  0.4994060528174735  0.0000000000000000   T   T   T
  0.5113269184885938  0.9989374134329773  0.5000000000000000   T   T   T
  0.0001424633936532  0.4973484931274851  0.5000000000000000   T   T   T
 
  0.00000000E+00  0.00000000E+00  0.00000000E+00
  0.00000000E+00  0.00000000E+00  0.00000000E+00
  0.00000000E+00  0.00000000E+00  0.00000000E+00
  0.00000000E+00  0.00000000E+00  0.00000000E+00
  0.00000000E+00  0.00000000E+00  0.00000000E+00
  0.00000000E+00  0.00000000E+00  0.00000000E+00
  0.00000000E+00  0.00000000E+00  0.00000000E+00
  0.00000000E+00  0.00000000E+00  0.00000000E+00
  0.00000000E+00  0.00000000E+00  0.00000000E+00
