MAPbI3-cubic                            
   1.01200000000000     
     6.1862848933960759    0.0000076031383289    0.0468365146308071
     0.0000070521895069    6.1579440257653371    0.0000071473437410
     0.0464624790238452    0.0000065981758599    6.2323993604342087
   C    N    H    Pb   I 
     1     1     6     1     3
Selective dynamics
Direct
  0.9062234558466420 -0.0000262933695426  0.9787954774365674   T   T   T
  0.1356451655928275 -0.0001032327153388  0.0380555167118135   T   T   T
  0.8959597215871595  0.9998666585310394  0.8054681701350088   T   T   T
  0.8306828594285668  0.1444952349834482  0.0447415735491251   T   T   T
  0.8305494001492925  0.8555970026061120  0.0449204541880905   T   T   T
  0.2154668808785562  0.1352509176981697  0.9802207388714788   T   T   T
  0.2153598086973578  0.8644416033784050  0.9803344322162110   T   T   T
  0.1568304085836455  0.9999603712004693  0.2017009748117478   T   T   T
  0.4689936984452631  0.4999551643674602  0.4798252254358554   T   T   T
  0.4321309219289767  0.4999137350731064  0.9777873458293689   T   T   T
  0.4319039736733807  0.9999526123542249  0.5173474714445149   T   T   T
  0.9582350931882856  0.4999986728924015  0.4465903593701868   T   T   T
 
  0.00000000E+00  0.00000000E+00  0.00000000E+00
  0.00000000E+00  0.00000000E+00  0.00000000E+00
  0.00000000E+00  0.00000000E+00  0.00000000E+00
  0.00000000E+00  0.00000000E+00  0.00000000E+00
  0.00000000E+00  0.00000000E+00  0.00000000E+00
  0.00000000E+00  0.00000000E+00  0.00000000E+00
  0.00000000E+00  0.00000000E+00  0.00000000E+00
  0.00000000E+00  0.00000000E+00  0.00000000E+00
  0.00000000E+00  0.00000000E+00  0.00000000E+00
  0.00000000E+00  0.00000000E+00  0.00000000E+00
  0.00000000E+00  0.00000000E+00  0.00000000E+00
  0.00000000E+00  0.00000000E+00  0.00000000E+00
