Calc_9_MAPbI3-cubic                     
   1.01200000000000     
     6.4513792334471178   -0.0001150563421637    0.2631493107497166
    -0.0001152175658210    6.4512158002478799   -0.0000736803661853
     0.2620314498736269   -0.0000709043952336    6.3618587944931217
   C    Sb   H    Pb   I 
     1     1     6     1     3
Selective dynamics
Direct
  0.8615578169041622  0.0000349165752892  0.9130479822580635   T   T   T
  0.0941361143123498  0.0000435229244712  0.1233465348797876   T   T   T
  0.9357825204796520  0.0000341096418574  0.7546100061049639   T   T   T
  0.7683352708032046  0.1381943294607076  0.9415553324352705   T   T   T
  0.7683330798756727  0.8618773614499525  0.9415526837566269   T   T   T
  0.2414828245132077  0.2141086119119124  0.0832747428314285   T   T   T
  0.2414809946402489  0.7859833916690949  0.0832825582280211   T   T   T
  0.9721157391458066  0.0000517157564922  0.3636110317900069   T   T   T
  0.5246793433755342  0.4999465515069609  0.5274164409612977   T   T   T
  0.5132858161856061  0.5000454230619780  0.0258742033625520   T   T   T
  0.4771213363767136  0.0000586881976506  0.5221946090854886   T   T   T
 -0.0023954431458101  0.5000708758334727  0.5160024184556445   T   T   T
 
  0.00000000E+00  0.00000000E+00  0.00000000E+00
  0.00000000E+00  0.00000000E+00  0.00000000E+00
  0.00000000E+00  0.00000000E+00  0.00000000E+00
  0.00000000E+00  0.00000000E+00  0.00000000E+00
  0.00000000E+00  0.00000000E+00  0.00000000E+00
  0.00000000E+00  0.00000000E+00  0.00000000E+00
  0.00000000E+00  0.00000000E+00  0.00000000E+00
  0.00000000E+00  0.00000000E+00  0.00000000E+00
  0.00000000E+00  0.00000000E+00  0.00000000E+00
  0.00000000E+00  0.00000000E+00  0.00000000E+00
  0.00000000E+00  0.00000000E+00  0.00000000E+00
  0.00000000E+00  0.00000000E+00  0.00000000E+00
