Calc_6_MAPbI3-cubic                     
   1.01200000000000     
     6.2760888315955787    0.0332436710462450    0.0000000000000000
     0.0310849512863910    6.3002339459966965    0.0000000000000000
     0.0000000000000000    0.0000000000000000    6.2186846208395874
   N    H    Pb   I 
     1     4     1     3
Selective dynamics
Direct
  0.9333225048906708  0.9983889405037792  0.0000000000000000   T   T   T
  0.0248061573703915  0.8640502528501786  0.0000000000000000   T   T   T
  0.8385815902368052  0.9999194239806193  0.8640156377391069   T   T   T
  0.8385815902368052  0.9999194239806193  0.1359843622608861   T   T   T
  0.0262623720301976  0.1298076259079017  0.0000000000000000   T   T   T
  0.5695537689797329  0.5088860860384830  0.5000000000000000   T   T   T
  0.5747519537648397  0.5069132959507061  0.0000000000000000   T   T   T
  0.6181480724246002  0.0077941260133633  0.5000000000000000   T   T   T
  0.0789357202004476  0.5048615036394595  0.5000000000000000   T   T   T
 
  0.00000000E+00  0.00000000E+00  0.00000000E+00
  0.00000000E+00  0.00000000E+00  0.00000000E+00
  0.00000000E+00  0.00000000E+00  0.00000000E+00
  0.00000000E+00  0.00000000E+00  0.00000000E+00
  0.00000000E+00  0.00000000E+00  0.00000000E+00
  0.00000000E+00  0.00000000E+00  0.00000000E+00
  0.00000000E+00  0.00000000E+00  0.00000000E+00
  0.00000000E+00  0.00000000E+00  0.00000000E+00
  0.00000000E+00  0.00000000E+00  0.00000000E+00
