Calc_11_MAPbI3-cubic                    
   1.01200000000000     
     6.2873896523747801   -0.0000141642002346    0.2847558146135245
    -0.0000124995876784    6.3426152437517027    0.0000150446731449
     0.2865225316856160    0.0000183297426000    6.3119297174137046
   C    As   H    Pb   I 
     1     1     6     1     3
Selective dynamics
Direct
  0.9055652594617714 -0.0000483336866593  0.8881134247816860   T   T   T
  0.0929671076187111 -0.0000344096702520  0.1090567516480776   T   T   T
  0.0036366124542750  0.9999527109608090  0.7379833184010463   T   T   T
  0.8077106459175631  0.1407143933340096  0.9043239895604819   T   T   T
  0.8077182091408279  0.8592215076026321  0.9043207584195631   T   T   T
  0.2321703211388314  0.1918728307831081  0.0939888006124339   T   T   T
  0.2321705448587329  0.8080420865266863  0.0939933722629565   T   T   T
  0.9650252209539508  0.9999564821108968  0.3186250847117785   T   T   T
  0.4976074233192417  0.4999511024781385  0.5259579080226933   T   T   T
  0.5187624657917056  0.4999550869751557  0.0215755329185974   T   T   T
  0.4696556653915301  0.9999507955125754  0.5301073614891512   T   T   T
 -0.0105724030356658  0.4999619071653697  0.4783234582775009   T   T   T
 
  0.00000000E+00  0.00000000E+00  0.00000000E+00
  0.00000000E+00  0.00000000E+00  0.00000000E+00
  0.00000000E+00  0.00000000E+00  0.00000000E+00
  0.00000000E+00  0.00000000E+00  0.00000000E+00
  0.00000000E+00  0.00000000E+00  0.00000000E+00
  0.00000000E+00  0.00000000E+00  0.00000000E+00
  0.00000000E+00  0.00000000E+00  0.00000000E+00
  0.00000000E+00  0.00000000E+00  0.00000000E+00
  0.00000000E+00  0.00000000E+00  0.00000000E+00
  0.00000000E+00  0.00000000E+00  0.00000000E+00
  0.00000000E+00  0.00000000E+00  0.00000000E+00
  0.00000000E+00  0.00000000E+00  0.00000000E+00
