Calc_11_MAPbI3-cubic                    
   1.01200000000000     
     6.3891456316600941   -0.0000141956007794    0.2215777015445956
    -0.0000098805963298    6.4376017460670631   -0.0000222208540884
     0.2233317861389458   -0.0000169019642882    6.4324018007939809
   C    As   H    Pb   I 
     1     1     6     1     3
Selective dynamics
Direct
  0.8926442251646064  0.0000051339505410  0.9160475843303933   T   T   T
  0.1023649006855954 -0.0000252391521409  0.1124954038857578   T   T   T
  0.9706933271417911  0.0000044343145734  0.7614411657430398   T   T   T
  0.7979575049914084  0.1385389966343957  0.9404746275978008   T   T   T
  0.7979255654704694  0.8614608097948895  0.9404637569501020   T   T   T
  0.2381943616297915  0.1897628868650503  0.0837274394916881   T   T   T
  0.2381699557974861  0.8101856974953349  0.0837283505746467   T   T   T
  0.9995334161959942 -0.0000256337409197  0.3266668699043089   T   T   T
  0.5000000000000000  0.5000000000000000  0.5000000000000000   F   F   F
  0.5000000000000000  0.5000000000000000  0.0000000000000000   F   F   F
  0.5000000000000000  0.0000000000000000  0.5000000000000000   F   F   F
  0.0000000000000000  0.5000000000000000  0.5000000000000000   F   F   F
 
  0.00000000E+00  0.00000000E+00  0.00000000E+00
  0.00000000E+00  0.00000000E+00  0.00000000E+00
  0.00000000E+00  0.00000000E+00  0.00000000E+00
  0.00000000E+00  0.00000000E+00  0.00000000E+00
  0.00000000E+00  0.00000000E+00  0.00000000E+00
  0.00000000E+00  0.00000000E+00  0.00000000E+00
  0.00000000E+00  0.00000000E+00  0.00000000E+00
  0.00000000E+00  0.00000000E+00  0.00000000E+00
  0.00000000E+00  0.00000000E+00  0.00000000E+00
  0.00000000E+00  0.00000000E+00  0.00000000E+00
  0.00000000E+00  0.00000000E+00  0.00000000E+00
  0.00000000E+00  0.00000000E+00  0.00000000E+00
