MAPbI3-cubic                            
   1.01200000000000     
     6.2349313739700101    0.0001278184233845    0.2357811141893250
     0.0001312776633790    6.1675475761258172    0.0002959196140889
     0.2336800896463291    0.0002767158010372    6.2476995957686805
   Rb   Pb   I 
     1     1     3
Selective dynamics
Direct
  0.0707405319439600  0.0000429039403474  0.0504932265797677   T   T   T
  0.4379368558173334  0.4999176735961589  0.4703883241333796   T   T   T
  0.4345055466896593  0.5000034846710640  0.9694143184172840   T   T   T
  0.4091794096284528  0.9999474651221729  0.5086361183155179   T   T   T
  0.9319852366433822  0.4999633369665166  0.4180926073312397   T   T   T
 
  0.00000000E+00  0.00000000E+00  0.00000000E+00
  0.00000000E+00  0.00000000E+00  0.00000000E+00
  0.00000000E+00  0.00000000E+00  0.00000000E+00
  0.00000000E+00  0.00000000E+00  0.00000000E+00
  0.00000000E+00  0.00000000E+00  0.00000000E+00
