Calc_5_MAPbI3-cubic                     
   1.01200000000000     
     7.3925732774317261    0.9571032071364043    1.3350789914556802
     0.7815099498255568    4.3582469226816327   -0.2066340589786046
     1.5249768232603347   -0.0087378057271539    6.1285476703331998
   Na   Pb   I 
     1     1     3
Selective dynamics
Direct
  0.2057794584436552  0.0251005954290813  0.1081316924497142   T   T   T
  0.5138796098138985  0.3717541758004979  0.4568535340738911   T   T   T
  0.5340400262478300  0.3615164098659450  0.9454471641865317   T   T   T
  0.1694036973108727  0.0436289989301518  0.6266188620859762   T   T   T
  0.8612447889065240  0.6978746842705834  0.2799733419810762   T   T   T
 
  0.00000000E+00  0.00000000E+00  0.00000000E+00
  0.00000000E+00  0.00000000E+00  0.00000000E+00
  0.00000000E+00  0.00000000E+00  0.00000000E+00
  0.00000000E+00  0.00000000E+00  0.00000000E+00
  0.00000000E+00  0.00000000E+00  0.00000000E+00
