Calc_11_MAPbI3-cubic                    
   1.01200000000000     
     6.2909205914107815   -0.0000989233271056    0.2584642645164036
    -0.0000943968849277    6.3494667377767939   -0.0000552691554927
     0.2600838406033642   -0.0000559940407308    6.3164213593512191
   C    As   H    Pb   I 
     1     1     6     1     3
Selective dynamics
Direct
  0.8926076248150041 -0.0000535349884297  0.9048806815092741   T   T   T
  0.0992216349587959 -0.0000880928143748  0.1087284707941883   T   T   T
  0.9768773744873206 -0.0000743015544321  0.7485481022290640   T   T   T
  0.7956378474612337  0.1403556141443383  0.9281776825818884   T   T   T
  0.7956373248468760  0.8594882350310917  0.9281812799010331   T   T   T
  0.2375064434870402  0.1927629110834269  0.0812587772257777   T   T   T
  0.2374694673463278  0.8071610528691576  0.0812701716110488   T   T   T
  0.9874593556088721 -0.0000557236783067  0.3253245952536866   T   T   T
  0.5000000000000000  0.5000000000000000  0.5000000000000000   F   F   F
  0.5000000000000000  0.5000000000000000  0.0000000000000000   F   F   F
  0.5000000000000000  0.0000000000000000  0.5000000000000000   F   F   F
  0.0000000000000000  0.5000000000000000  0.5000000000000000   F   F   F
 
  0.00000000E+00  0.00000000E+00  0.00000000E+00
  0.00000000E+00  0.00000000E+00  0.00000000E+00
  0.00000000E+00  0.00000000E+00  0.00000000E+00
  0.00000000E+00  0.00000000E+00  0.00000000E+00
  0.00000000E+00  0.00000000E+00  0.00000000E+00
  0.00000000E+00  0.00000000E+00  0.00000000E+00
  0.00000000E+00  0.00000000E+00  0.00000000E+00
  0.00000000E+00  0.00000000E+00  0.00000000E+00
  0.00000000E+00  0.00000000E+00  0.00000000E+00
  0.00000000E+00  0.00000000E+00  0.00000000E+00
  0.00000000E+00  0.00000000E+00  0.00000000E+00
  0.00000000E+00  0.00000000E+00  0.00000000E+00
