Calc_9_MAPbI3-cubic                     
   1.01200000000000     
     6.5852016433373679   -0.0015269190808555    0.2866428816611482
    -0.0015015650597436    6.5087539820431752   -0.0005524967105742
     0.2902894902385174   -0.0006110954272343    6.4275649546686777
   C    Sb   H    Pb   I 
     1     1     6     1     3
Selective dynamics
Direct
  0.8684478467064507  0.0000035195687073  0.9161360261980576   T   T   T
  0.0936655491742418  0.0000816527871547  0.1268649919825699   T   T   T
  0.9435828225974905  0.0000263477358290  0.7597770453553699   T   T   T
  0.7768022567256014  0.1369730728976550  0.9436381534360838   T   T   T
  0.7767100354938425  0.8630150364440162  0.9436140730379002   T   T   T
  0.2390383959799245  0.2117595415026909  0.0885342902301374   T   T   T
  0.2389549555094462  0.7884444473200389  0.0885471407827023   T   T   T
  0.9728084837468748  0.0000293451976825  0.3648381989276719   T   T   T
  0.5234875005454273  0.4993525644895185  0.5226626989512293   T   T   T
  0.5121532217574724  0.5001497105829464  0.0212406871641067   T   T   T
  0.4685231239722303  0.0005875010919433  0.5211325410634154   T   T   T
  0.9817412212573785  0.5000267583716708  0.4987826970199115   T   T   T
 
  0.00000000E+00  0.00000000E+00  0.00000000E+00
  0.00000000E+00  0.00000000E+00  0.00000000E+00
  0.00000000E+00  0.00000000E+00  0.00000000E+00
  0.00000000E+00  0.00000000E+00  0.00000000E+00
  0.00000000E+00  0.00000000E+00  0.00000000E+00
  0.00000000E+00  0.00000000E+00  0.00000000E+00
  0.00000000E+00  0.00000000E+00  0.00000000E+00
  0.00000000E+00  0.00000000E+00  0.00000000E+00
  0.00000000E+00  0.00000000E+00  0.00000000E+00
  0.00000000E+00  0.00000000E+00  0.00000000E+00
  0.00000000E+00  0.00000000E+00  0.00000000E+00
  0.00000000E+00  0.00000000E+00  0.00000000E+00
