MAPbI3-cubic                            
   1.01200000000000     
     5.9848921425994286   -0.0003372010375668    0.0000000000000000
    -0.0024716952723944    6.0088304008177662    0.0000000000000000
     0.0000000000000000    0.0000000000000000    6.0075014800825839
   N    H    Pb   I 
     1     4     1     3
Selective dynamics
Direct
 -0.0001514917723968 -0.0003439942930853  0.0000000000000000   T   T   T
  0.1036468226168866  0.8632749242871360  0.0000000000000000   T   T   T
  0.9005691211052588  0.9964275450026402  0.8604606314501348   T   T   T
  0.9005691211052588  0.9964275450026402  0.1395393685498656   T   T   T
  0.0948154085541340  0.1421168856326178  0.0000000000000000   T   T   T
  0.5000142576345045  0.5002791615577824  0.5000000000000000   T   T   T
  0.4590160681654507  0.5021977774453437  0.0000000000000000   T   T   T
  0.5411363508642630  0.0000380927930875  0.5000000000000000   T   T   T
  0.0000100322486465  0.4998293109712837  0.5000000000000000   T   T   T
 
  0.00000000E+00  0.00000000E+00  0.00000000E+00
  0.00000000E+00  0.00000000E+00  0.00000000E+00
  0.00000000E+00  0.00000000E+00  0.00000000E+00
  0.00000000E+00  0.00000000E+00  0.00000000E+00
  0.00000000E+00  0.00000000E+00  0.00000000E+00
  0.00000000E+00  0.00000000E+00  0.00000000E+00
  0.00000000E+00  0.00000000E+00  0.00000000E+00
  0.00000000E+00  0.00000000E+00  0.00000000E+00
  0.00000000E+00  0.00000000E+00  0.00000000E+00
