Calc_11_MAPbI3-cubic                    
   1.01200000000000     
     6.3409256068461275    0.0000302688404289    0.2420381538575036
     0.0000357182178259    6.3916988424867922   -0.0000500329121095
     0.2441913692021881   -0.0000460270269978    6.3726769842130198
   C    As   H    Pb   I 
     1     1     6     1     3
Selective dynamics
Direct
  0.8905178545310920  0.0000257866067558  0.9142058752655859   T   T   T
  0.1044164468850344 -0.0000314718777984  0.1076803361928626   T   T   T
  0.9673755969176345 -0.0000037315153455  0.7569691505840548   T   T   T
  0.7952199426875030  0.1394177883269060  0.9407678323914255   T   T   T
  0.7952023491236375  0.8605749828191164  0.9407838844732820   T   T   T
  0.2405046913320638  0.1918110168856480  0.0757545534734237   T   T   T
  0.2404529813663980  0.8082296464932156  0.0757594093953281   T   T   T
  0.0019265766659254  0.0000001668300275  0.3249615676477604   T   T   T
  0.5000000000000000  0.5000000000000000  0.5000000000000000   F   F   F
  0.5000000000000000  0.5000000000000000  0.0000000000000000   F   F   F
  0.5000000000000000  0.0000000000000000  0.5000000000000000   F   F   F
  0.0000000000000000  0.5000000000000000  0.5000000000000000   F   F   F
 
  0.00000000E+00  0.00000000E+00  0.00000000E+00
  0.00000000E+00  0.00000000E+00  0.00000000E+00
  0.00000000E+00  0.00000000E+00  0.00000000E+00
  0.00000000E+00  0.00000000E+00  0.00000000E+00
  0.00000000E+00  0.00000000E+00  0.00000000E+00
  0.00000000E+00  0.00000000E+00  0.00000000E+00
  0.00000000E+00  0.00000000E+00  0.00000000E+00
  0.00000000E+00  0.00000000E+00  0.00000000E+00
  0.00000000E+00  0.00000000E+00  0.00000000E+00
  0.00000000E+00  0.00000000E+00  0.00000000E+00
  0.00000000E+00  0.00000000E+00  0.00000000E+00
  0.00000000E+00  0.00000000E+00  0.00000000E+00
