MAPbI3-cubic                            
   1.01200000000000     
     6.2610957905340836    0.0267898386686940    0.0000000000000000
     0.0239279294492952    6.3281822806277450    0.0000000000000000
     0.0000000000000000    0.0000000000000000    6.3396595255643282
   As   H    Pb   I 
     1     4     1     3
Selective dynamics
Direct
  0.9918105597662973  0.0006751674948476  0.0000000000000000   T   T   T
  0.1417962978746023  0.8141885769441620  0.0000000000000000   T   T   T
  0.8516214359810753  0.9968165676489680  0.8066504037194338   T   T   T
  0.8516214359810753  0.9968165676489680  0.1933495962805664   T   T   T
  0.1236308536203282  0.1973080724482052  0.0000000000000000   T   T   T
  0.5065402980027969  0.5069428551778974  0.5000000000000000   T   T   T
  0.4719838741779424  0.5049121283086414  0.0000000000000000   T   T   T
  0.5550863477335179  0.0042159980150445  0.5000000000000000   T   T   T
  0.0088526269968483  0.4986647451783620  0.5000000000000000   T   T   T
 
  0.00000000E+00  0.00000000E+00  0.00000000E+00
  0.00000000E+00  0.00000000E+00  0.00000000E+00
  0.00000000E+00  0.00000000E+00  0.00000000E+00
  0.00000000E+00  0.00000000E+00  0.00000000E+00
  0.00000000E+00  0.00000000E+00  0.00000000E+00
  0.00000000E+00  0.00000000E+00  0.00000000E+00
  0.00000000E+00  0.00000000E+00  0.00000000E+00
  0.00000000E+00  0.00000000E+00  0.00000000E+00
  0.00000000E+00  0.00000000E+00  0.00000000E+00
