Calc_9_MAPbI3-cubic                     
   1.01200000000000     
     6.3388072911421727   -0.0000403840259234    0.2910963177421050
    -0.0000532886436423    6.4143550554557534    0.0000656658659109
     0.2897755669191919    0.0000590831858452    6.3105863706942964
   C    Sb   H    Pb   I 
     1     1     6     1     3
Selective dynamics
Direct
  0.8690706824752605  0.0000410503186490  0.8981487144657635   T   T   T
  0.0904269545221954  0.0000323887032371  0.1243077444098479   T   T   T
  0.9546024673343699  0.0000542034460337  0.7419493485776133   T   T   T
  0.7732330029006506  0.1391809316389546  0.9226053775808105   T   T   T
  0.7732256621486501  0.8609313148043524  0.9225983691923746   T   T   T
  0.2423583594902335  0.2148641618064083  0.0932564635042060   T   T   T
  0.2423559831741569  0.7852058900713529  0.0932487407438905   T   T   T
  0.9517133427744882  0.0000369266117379  0.3612604320709346   T   T   T
  0.5045741482733974  0.5000368896246449  0.5382834809691780   T   T   T
  0.5317260394501278  0.5000256161204039  0.0407688278116421   T   T   T
  0.4609893915602509  0.0000167105626318  0.5332623651303172   T   T   T
  0.0016393793625836  0.5000234142814330  0.5260786796925668   T   T   T
 
  0.00000000E+00  0.00000000E+00  0.00000000E+00
  0.00000000E+00  0.00000000E+00  0.00000000E+00
  0.00000000E+00  0.00000000E+00  0.00000000E+00
  0.00000000E+00  0.00000000E+00  0.00000000E+00
  0.00000000E+00  0.00000000E+00  0.00000000E+00
  0.00000000E+00  0.00000000E+00  0.00000000E+00
  0.00000000E+00  0.00000000E+00  0.00000000E+00
  0.00000000E+00  0.00000000E+00  0.00000000E+00
  0.00000000E+00  0.00000000E+00  0.00000000E+00
  0.00000000E+00  0.00000000E+00  0.00000000E+00
  0.00000000E+00  0.00000000E+00  0.00000000E+00
  0.00000000E+00  0.00000000E+00  0.00000000E+00
