MAPbI3-cubic                            
   1.01200000000000     
     6.1167820271311992    0.0157399600026422    0.0000000000000000
     0.0130694723932640    6.1382184921538503    0.0000000000000000
     0.0000000000000000    0.0000000000000000    6.1371477301796773
   N    H    Pb   I 
     1     4     1     3
Selective dynamics
Direct
  1.0000291378857142  0.9987034138472441  0.0000000000000000   T   T   T
  0.0999862781186361  0.8636951137232891  0.0000000000000000   T   T   T
  0.9027696618140790  0.9972746344445037  0.8634486402763418   T   T   T
  0.9027696618140790  0.9972746344445037  0.1365513597236603   T   T   T
  0.0944575692257371  0.1366389223130202  0.0000000000000000   T   T   T
  0.5000728226308223  0.5005002200156383  0.5000000000000000   T   T   T
  0.4959368807750017  0.4992052477317492  0.0000000000000000   T   T   T
  0.5040137315078300  0.0002234591962220  0.5000000000000000   T   T   T
  0.0000062728086575  0.5002723244388196  0.5000000000000000   T   T   T
 
  0.00000000E+00  0.00000000E+00  0.00000000E+00
  0.00000000E+00  0.00000000E+00  0.00000000E+00
  0.00000000E+00  0.00000000E+00  0.00000000E+00
  0.00000000E+00  0.00000000E+00  0.00000000E+00
  0.00000000E+00  0.00000000E+00  0.00000000E+00
  0.00000000E+00  0.00000000E+00  0.00000000E+00
  0.00000000E+00  0.00000000E+00  0.00000000E+00
  0.00000000E+00  0.00000000E+00  0.00000000E+00
  0.00000000E+00  0.00000000E+00  0.00000000E+00
