Calc1_MAPbI3-cubic                      
   1.01200000000000     
     6.1488255637743849    0.0085399787910612    0.0000000000000000
     0.0049412394290015    6.2304912903157961    0.0000000000000000
     0.0000000000000000    0.0000000000000000    6.2331240146609721
   Sb   H    Pb   I 
     1     4     1     3
Selective dynamics
Direct
  0.0018347023614025  0.0028495505905687  0.0000000000000000   T   T   T
  0.1632176587165962  0.7852906627843864  0.0000000000000000   T   T   T
  0.8401212469622861  0.0023545334399896  0.7834804187189836   T   T   T
  0.8401212469622861  0.0023545334399896  0.2165195812810162   T   T   T
  0.1622342654806939  0.2201787019097409  0.0000000000000000   T   T   T
  0.4992776772703435  0.5015519354071920  0.5000000000000000   T   T   T
  0.5354295202408252  0.5000274574817138  0.0000000000000000   T   T   T
  0.4616547240154414  0.0018025596981051  0.5000000000000000   T   T   T
  0.9990526881246150  0.5041307441134312  0.5000000000000000   T   T   T
 
  0.00000000E+00  0.00000000E+00  0.00000000E+00
  0.00000000E+00  0.00000000E+00  0.00000000E+00
  0.00000000E+00  0.00000000E+00  0.00000000E+00
  0.00000000E+00  0.00000000E+00  0.00000000E+00
  0.00000000E+00  0.00000000E+00  0.00000000E+00
  0.00000000E+00  0.00000000E+00  0.00000000E+00
  0.00000000E+00  0.00000000E+00  0.00000000E+00
  0.00000000E+00  0.00000000E+00  0.00000000E+00
  0.00000000E+00  0.00000000E+00  0.00000000E+00
