Calc1_MAPbI3-cubic                      
   1.01200000000000     
     6.1929895812604512   -0.0014117108167903    0.0000000000000000
    -0.0050443119014588    6.2989100901941875    0.0000000000000000
     0.0000000000000000    0.0000000000000000    6.2987392013724666
   Sb   H    Pb   I 
     1     4     1     3
Selective dynamics
Direct
  0.0013700730288805  0.0024449504871149  0.0000000000000000   T   T   T
  0.1618341104114121  0.7874622368720261  0.0000000000000000   T   T   T
  0.8403517909281016  0.0019110111086236  0.7852477000746887   T   T   T
  0.8403517909281016  0.0019110111086236  0.2147522999253114   T   T   T
  0.1619229055727254  0.2178427467889112  0.0000000000000000   T   T   T
  0.4999842176807221  0.5015808994035381  0.5000000000000000   T   T   T
  0.5143680243806725  0.5024784141781179  0.0000000000000000   T   T   T
  0.4833803081205023  0.0020954634088136  0.5000000000000000   T   T   T
 -0.0006194909166283  0.5028139455093485  0.5000000000000000   T   T   T
 
  0.00000000E+00  0.00000000E+00  0.00000000E+00
  0.00000000E+00  0.00000000E+00  0.00000000E+00
  0.00000000E+00  0.00000000E+00  0.00000000E+00
  0.00000000E+00  0.00000000E+00  0.00000000E+00
  0.00000000E+00  0.00000000E+00  0.00000000E+00
  0.00000000E+00  0.00000000E+00  0.00000000E+00
  0.00000000E+00  0.00000000E+00  0.00000000E+00
  0.00000000E+00  0.00000000E+00  0.00000000E+00
  0.00000000E+00  0.00000000E+00  0.00000000E+00
