Calc_6_MAPbI3-cubic                     
   1.01200000000000     
     5.9491230092490985    0.0354820588709526    0.0000000000000000
     0.0331937425358549    6.0170361325387942    0.0000000000000000
     0.0000000000000000    0.0000000000000000    6.0254458249560683
   N    H    Pb   I 
     1     4     1     3
Selective dynamics
Direct
  0.9928269060025942  0.0005906199616654  0.0000000000000000   T   T   T
  0.1029161843792962  0.8668958340434459  0.0000000000000000   T   T   T
  0.8932823186737855 -0.0046448031573304  0.8605157872732163   T   T   T
  0.8932823186737855 -0.0046448031573304  0.1394842127267839   T   T   T
  0.0820970533820449  0.1447537396537213  0.0000000000000000   T   T   T
  0.5083996337107410  0.5079922954422356  0.5000000000000000   T   T   T
  0.4149303180981655  0.5419580418023778  0.0000000000000000   T   T   T
  0.6049553363984358  0.0015555490201692  0.5000000000000000   T   T   T
  0.0102536608156271  0.4660842052561417  0.5000000000000000   T   T   T
 
  0.00000000E+00  0.00000000E+00  0.00000000E+00
  0.00000000E+00  0.00000000E+00  0.00000000E+00
  0.00000000E+00  0.00000000E+00  0.00000000E+00
  0.00000000E+00  0.00000000E+00  0.00000000E+00
  0.00000000E+00  0.00000000E+00  0.00000000E+00
  0.00000000E+00  0.00000000E+00  0.00000000E+00
  0.00000000E+00  0.00000000E+00  0.00000000E+00
  0.00000000E+00  0.00000000E+00  0.00000000E+00
  0.00000000E+00  0.00000000E+00  0.00000000E+00
