MAPbI3-cubic                            
   1.01200000000000     
     6.2243218814301526   -0.0000260642922996   -0.0028124244090980
    -0.0000304702476123    6.2343485517509318   -0.0002269771900849
    -0.0030670132488564   -0.0002266685260074    6.2329062399607595
   Cs   Pb   I 
     1     1     3
Selective dynamics
Direct
 -0.0412266532339127 -0.0000124932270480 -0.0162632203398285   T   T   T
  0.4564586398024462  0.4999585144820943  0.4829068689305560   T   T   T
  0.4561308199289926  0.4999638156357472  0.9829698819415135   T   T   T
  0.4572730293754936  0.9999678652892732  0.4916861470136827   T   T   T
  0.9557117448497680  0.4999971621161931  0.4757249172312655   T   T   T
 
  0.00000000E+00  0.00000000E+00  0.00000000E+00
  0.00000000E+00  0.00000000E+00  0.00000000E+00
  0.00000000E+00  0.00000000E+00  0.00000000E+00
  0.00000000E+00  0.00000000E+00  0.00000000E+00
  0.00000000E+00  0.00000000E+00  0.00000000E+00
