Calc_6_MAPbI3-cubic                     
   1.01200000000000     
     5.8951493561217552    0.0351601464924780    0.0000000000000000
     0.0328925909975788    5.9624463349219949    0.0000000000000000
     0.0000000000000000    0.0000000000000000    5.9707797300731453
   N    H    Pb   I 
     1     4     1     3
Selective dynamics
Direct
  0.9947642367675096  0.0183148605422224  0.0000000000000000   T   T   T
  0.1109549093686721  0.8877320079675108  0.0000000000000000   T   T   T
  0.8950597208758774  0.0086899827256242  0.8589891631608013   T   T   T
  0.8950597208758774  0.0086899827256242  0.1410108368391987   T   T   T
  0.0784667503588325  0.1678343035961231  0.0000000000000000   T   T   T
  0.5080246769043519  0.4801963328883055  0.5000000000000000   T   T   T
  0.4020766762200925  0.5463719977079410  0.0000000000000000   T   T   T
  0.6072868895563098  0.9726833073117396  0.5000000000000000   T   T   T
  0.0112501492069527  0.4300279034000052  0.5000000000000000   T   T   T
 
  0.00000000E+00  0.00000000E+00  0.00000000E+00
  0.00000000E+00  0.00000000E+00  0.00000000E+00
  0.00000000E+00  0.00000000E+00  0.00000000E+00
  0.00000000E+00  0.00000000E+00  0.00000000E+00
  0.00000000E+00  0.00000000E+00  0.00000000E+00
  0.00000000E+00  0.00000000E+00  0.00000000E+00
  0.00000000E+00  0.00000000E+00  0.00000000E+00
  0.00000000E+00  0.00000000E+00  0.00000000E+00
  0.00000000E+00  0.00000000E+00  0.00000000E+00
