MAPbI3-cubic                            
   1.01200000000000     
     6.2188061239082568    0.0003730926171393   -0.0032173816076194
     0.0002843256320537    6.2181720574641783    0.0001246520282582
    -0.0028503189672529    0.0001096180589739    6.2187138346600150
   Cs   Pb   I 
     1     1     3
Selective dynamics
Direct
  0.9743176131879370  0.9999838027224257  0.9879889343285314   T   T   T
  0.4546021481932263  0.4999697547045017  0.4828476454645879   T   T   T
  0.4509346102677905  0.4999768255838641  0.9828476455102645   T   T   T
  0.4499267009959196 -0.0000308972504002  0.4882180629216439   T   T   T
  0.9545665080779070  0.4999753785358749  0.4751223065521682   T   T   T
 
  0.00000000E+00  0.00000000E+00  0.00000000E+00
  0.00000000E+00  0.00000000E+00  0.00000000E+00
  0.00000000E+00  0.00000000E+00  0.00000000E+00
  0.00000000E+00  0.00000000E+00  0.00000000E+00
  0.00000000E+00  0.00000000E+00  0.00000000E+00
