MAPbI3-cubic                            
   1.01200000000000     
     6.2806369985132697    0.0000203786557242    0.0872450593802004
     0.0000210601838719    6.2048088449899748   -0.0000079437403456
     0.0872529588777064   -0.0000079532410630    6.2935000699307091
   C    N    H    Pb   I 
     1     1     6     1     3
Selective dynamics
Direct
  0.9092162349501274  0.9999570971236154  0.9685441932652036   T   T   T
  0.1274256135263799  0.9999398630866608  0.0485591627721749   T   T   T
  0.9178034186163953  0.9999270753569935  0.7967185124536420   T   T   T
  0.8280029729664471  0.1429799827488638  0.0262298951445373   T   T   T
  0.8279650765016981  0.8569730536373000  0.0262762649357842   T   T   T
  0.2115132226772776  0.1340554464419667  0.9991229127677228   T   T   T
  0.2114907622430856  0.8658020927019447  0.9991399191542748   T   T   T
  0.1313861628769347  0.9999506721436281  0.2111443338438073   T   T   T
  0.4778136388405496  0.4999221314469875  0.4788100843104608   T   T   T
  0.4302132843680345  0.4999344846082311  0.9776976780793690   T   T   T
  0.4460885861243679  0.9999266046132170  0.5089573729565543   T   T   T
  0.9590624143086709  0.4999339430905395  0.4545874103164091   T   T   T
 
  0.00000000E+00  0.00000000E+00  0.00000000E+00
  0.00000000E+00  0.00000000E+00  0.00000000E+00
  0.00000000E+00  0.00000000E+00  0.00000000E+00
  0.00000000E+00  0.00000000E+00  0.00000000E+00
  0.00000000E+00  0.00000000E+00  0.00000000E+00
  0.00000000E+00  0.00000000E+00  0.00000000E+00
  0.00000000E+00  0.00000000E+00  0.00000000E+00
  0.00000000E+00  0.00000000E+00  0.00000000E+00
  0.00000000E+00  0.00000000E+00  0.00000000E+00
  0.00000000E+00  0.00000000E+00  0.00000000E+00
  0.00000000E+00  0.00000000E+00  0.00000000E+00
  0.00000000E+00  0.00000000E+00  0.00000000E+00
