Calc_11_MAPbI3-cubic                    
   1.01200000000000     
     6.2873896523747801   -0.0000141642002346    0.2847558146135245
    -0.0000124995876784    6.3426152437517027    0.0000150446731449
     0.2865225316856160    0.0000183297426000    6.3119297174137046
   C    As   H    Pb   I 
     1     1     6     1     3
Selective dynamics
Direct
  0.8933735330131772  0.9999364650831180  0.9037695008868956   T   T   T
  0.0983544121728816  0.9999731618032371  0.1077609631107949   T   T   T
  0.9791406740726372  0.9999499048105359  0.7472553529331303   T   T   T
  0.7963611870601761  0.1406895249502686  0.9273135971901795   T   T   T
  0.7963707875943874  0.8592211439303875  0.9273227148837920   T   T   T
  0.2369141685234198  0.1928743958086405  0.0808274540681872   T   T   T
  0.2369029340799634  0.8070511564068701  0.0808332764706911   T   T   T
  0.9848627541326928  0.9999578003420848  0.3246202094941032   T   T   T
  0.5027550337564586  0.4999754917788428  0.5041534144538534   T   T   T
  0.5075584403296487  0.4999342338916214  0.0036586138256052   T   T   T
  0.4894703691028618 -0.0000347289424972  0.5017625513765553   T   T   T
  0.0003527791731768  0.4999676102293552  0.4970921124121799   T   T   T
 
  0.00000000E+00  0.00000000E+00  0.00000000E+00
  0.00000000E+00  0.00000000E+00  0.00000000E+00
  0.00000000E+00  0.00000000E+00  0.00000000E+00
  0.00000000E+00  0.00000000E+00  0.00000000E+00
  0.00000000E+00  0.00000000E+00  0.00000000E+00
  0.00000000E+00  0.00000000E+00  0.00000000E+00
  0.00000000E+00  0.00000000E+00  0.00000000E+00
  0.00000000E+00  0.00000000E+00  0.00000000E+00
  0.00000000E+00  0.00000000E+00  0.00000000E+00
  0.00000000E+00  0.00000000E+00  0.00000000E+00
  0.00000000E+00  0.00000000E+00  0.00000000E+00
  0.00000000E+00  0.00000000E+00  0.00000000E+00
