MAPbI3-cubic                            
   1.01200000000000     
     6.2133931633902524    0.0000640296100163    0.0038945316316731
     0.0000612784219169    6.2197343560925269    0.0004151321918305
     0.0040498007342044    0.0004081898943021    6.2227150794534829
   Cs   Pb   I 
     1     1     3
Selective dynamics
Direct
 -0.0204915652203374  0.0000584208604578 -0.0077758380565317   T   T   T
  0.4518875566377439  0.4999937419661146  0.4838862876081628   T   T   T
  0.4494815376760157  0.4997841913160733  0.9827169368056095   T   T   T
  0.4518998505773959  0.9999832830090303  0.4906243013949683   T   T   T
  0.9515702010519694  0.5000552271445838  0.4675729070249799   T   T   T
 
  0.00000000E+00  0.00000000E+00  0.00000000E+00
  0.00000000E+00  0.00000000E+00  0.00000000E+00
  0.00000000E+00  0.00000000E+00  0.00000000E+00
  0.00000000E+00  0.00000000E+00  0.00000000E+00
  0.00000000E+00  0.00000000E+00  0.00000000E+00
