Calc_9_MAPbI3-cubic                     
   1.01200000000000     
     6.3443617614926247    0.0001558527188711    0.3048306763799541
     0.0001753256769399    6.4248860531958156   -0.0002103074537121
     0.3022563588509591   -0.0002003253594105    6.3023372965949003
   C    Sb   H    Pb   I 
     1     1     6     1     3
Selective dynamics
Direct
  0.8692102525705031  0.0000282865868462  0.8988181070768461   T   T   T
  0.0921041713708987  0.0000539589249406  0.1219100945586741   T   T   T
  0.9534134982169714  0.0000161105285073  0.7416886025472801   T   T   T
  0.7737464985410576  0.1387851182655163  0.9246346565701541   T   T   T
  0.7737643732333611  0.8612908187068152  0.9246360170127798   T   T   T
  0.2440552321500283  0.2141051834254702  0.0903427072344187   T   T   T
  0.2440725389190455  0.7859945361176661  0.0903455084326999   T   T   T
  0.9566142398441345  0.0000899221333060  0.3611370285458111   T   T   T
  0.4908599371376164  0.5000022278707463  0.5369070689914749   T   T   T
  0.5359632195370012  0.5000097938132132  0.0426273921836052   T   T   T
  0.4645786352147327 -0.0000234623746191  0.5357461821063300   T   T   T
 -0.0024671832689930  0.5000970039914309  0.5269751788890661   T   T   T
 
  0.00000000E+00  0.00000000E+00  0.00000000E+00
  0.00000000E+00  0.00000000E+00  0.00000000E+00
  0.00000000E+00  0.00000000E+00  0.00000000E+00
  0.00000000E+00  0.00000000E+00  0.00000000E+00
  0.00000000E+00  0.00000000E+00  0.00000000E+00
  0.00000000E+00  0.00000000E+00  0.00000000E+00
  0.00000000E+00  0.00000000E+00  0.00000000E+00
  0.00000000E+00  0.00000000E+00  0.00000000E+00
  0.00000000E+00  0.00000000E+00  0.00000000E+00
  0.00000000E+00  0.00000000E+00  0.00000000E+00
  0.00000000E+00  0.00000000E+00  0.00000000E+00
  0.00000000E+00  0.00000000E+00  0.00000000E+00
