MAPbI3-cubic                            
   1.01200000000000     
     6.2522168386428900   -0.0006375812120421    0.2449834277198361
    -0.0006038168875804    6.1278285337048048   -0.0002631200838393
     0.2416201976023077   -0.0002709724862688    6.2824395395158259
   Rb   Pb   I 
     1     1     3
Selective dynamics
Direct
  0.0747208909709337 -0.0000752267632740  0.0538183622705272   T   T   T
  0.4483921380725811  0.4999831761964960  0.4714742828576812   T   T   T
  0.4420799984993475  0.5000641760793326  0.9697998768929559   T   T   T
  0.3842634453585224 -0.0000039949216876  0.5236984848115350   T   T   T
  0.9348911078214025  0.4999067337053922  0.3982335879444901   T   T   T
 
  0.00000000E+00  0.00000000E+00  0.00000000E+00
  0.00000000E+00  0.00000000E+00  0.00000000E+00
  0.00000000E+00  0.00000000E+00  0.00000000E+00
  0.00000000E+00  0.00000000E+00  0.00000000E+00
  0.00000000E+00  0.00000000E+00  0.00000000E+00
