Calc_11_MAPbI3-cubic                    
   1.01200000000000     
     6.3080092081515282   -0.0000049410663918    0.2919588458466733
     0.0000068442667446    6.3557017954971373   -0.0001354778234432
     0.2946765711108937   -0.0001301484949104    6.3161797309952616
   C    As   H    Pb   I 
     1     1     6     1     3
Selective dynamics
Direct
  0.8850906603655831 -0.0000181920630630  0.9073352659097660   T   T   T
  0.0994727512451133 -0.0000182831162488  0.1000166234959863   T   T   T
  0.9631387999514093 -0.0000314137574866  0.7477369495238836   T   T   T
  0.7894841937738671  0.1403765912562967  0.9358647544088665   T   T   T
  0.7894751528806618  0.8595783222774153  0.9358734589270795   T   T   T
  0.2372761649222540  0.1924420686631210  0.0675453590553943   T   T   T
  0.2372702503530879  0.8075200896711248  0.0675564281493267   T   T   T
  0.9954206983434380 -0.0000114457625225  0.3206402328865776   T   T   T
  0.5000000000000000  0.5000000000000000  0.5000000000000000   F   F   F
  0.5000000000000000  0.5000000000000000  0.0000000000000000   F   F   F
  0.5000000000000000  0.0000000000000000  0.5000000000000000   F   F   F
  0.0000000000000000  0.5000000000000000  0.5000000000000000   F   F   F
 
  0.00000000E+00  0.00000000E+00  0.00000000E+00
  0.00000000E+00  0.00000000E+00  0.00000000E+00
  0.00000000E+00  0.00000000E+00  0.00000000E+00
  0.00000000E+00  0.00000000E+00  0.00000000E+00
  0.00000000E+00  0.00000000E+00  0.00000000E+00
  0.00000000E+00  0.00000000E+00  0.00000000E+00
  0.00000000E+00  0.00000000E+00  0.00000000E+00
  0.00000000E+00  0.00000000E+00  0.00000000E+00
  0.00000000E+00  0.00000000E+00  0.00000000E+00
  0.00000000E+00  0.00000000E+00  0.00000000E+00
  0.00000000E+00  0.00000000E+00  0.00000000E+00
  0.00000000E+00  0.00000000E+00  0.00000000E+00
