Calc_12_MAPbI3-cubic                    
   1.01200000000000     
     6.2442790682521618   -0.0000657017869086    0.0531872530711261
    -0.0000648283530487    6.2145342877406895    0.0000011976399007
     0.0529064433611870    0.0000004301852739    6.2939405140351630
   C    N    H    Pb   I 
     1     1     6     1     3
Selective dynamics
Direct
  0.9071974852636464  0.9999611210983705  0.9785693279026336   T   T   T
  0.1340400927004701  0.9999117330936684  0.0391264421580424   T   T   T
  0.8987191816460223  0.9998671893447452  0.8070704954144092   T   T   T
  0.8315557329190634  0.1428638688222673  0.0430507564232499   T   T   T
  0.8314088467561279  0.8572371599165921  0.0432216144870448   T   T   T
  0.2137488684607061  0.1336916849695885  0.9830515503479530   T   T   T
  0.2136457348083645  0.8659803011966374  0.9831519157579232   T   T   T
  0.1540895045641730  0.9999549662696091  0.2007987789061093   T   T   T
  0.4667831563798687  0.4999656178470032  0.4781707798458695   T   T   T
  0.4320662295838303  0.4999115332997336  0.9763321334378154   T   T   T
  0.4397140042203544  0.9999653063130786  0.5087181404375737   T   T   T
  0.9550125506973205  0.4999919648286640  0.4545258048813473   T   T   T
 
  0.00000000E+00  0.00000000E+00  0.00000000E+00
  0.00000000E+00  0.00000000E+00  0.00000000E+00
  0.00000000E+00  0.00000000E+00  0.00000000E+00
  0.00000000E+00  0.00000000E+00  0.00000000E+00
  0.00000000E+00  0.00000000E+00  0.00000000E+00
  0.00000000E+00  0.00000000E+00  0.00000000E+00
  0.00000000E+00  0.00000000E+00  0.00000000E+00
  0.00000000E+00  0.00000000E+00  0.00000000E+00
  0.00000000E+00  0.00000000E+00  0.00000000E+00
  0.00000000E+00  0.00000000E+00  0.00000000E+00
  0.00000000E+00  0.00000000E+00  0.00000000E+00
  0.00000000E+00  0.00000000E+00  0.00000000E+00
