MAPbI3-cubic                            
   1.01200000000000     
     6.1373653219981046    0.0223817115578327    0.0000000000000000
     0.0200981990326839    6.1993408936477055    0.0000000000000000
     0.0000000000000000    0.0000000000000000    6.2003606874827071
   As   H    Pb   I 
     1     4     1     3
Selective dynamics
Direct
  0.9976132670377014  0.0002399192135539  0.0000000000000000   T   T   T
  0.1464277594461379  0.8064348800154912  0.0000000000000000   T   T   T
  0.8533853330395473 -0.0002734018891460  0.8039877154554907   T   T   T
  0.8533853330395473 -0.0002734018891460  0.1960122845445096   T   T   T
  0.1367218458899672  0.1981193585004132  0.0000000000000000   T   T   T
  0.5054334033216636  0.5033013449930919  0.5000000000000000   T   T   T
  0.4782735957934514  0.5064975318321108  0.0000000000000000   T   T   T
  0.5272062540844055  0.0037007845213032  0.5000000000000000   T   T   T
  0.0044969384820603  0.5027936635674232  0.5000000000000000   T   T   T
 
  0.00000000E+00  0.00000000E+00  0.00000000E+00
  0.00000000E+00  0.00000000E+00  0.00000000E+00
  0.00000000E+00  0.00000000E+00  0.00000000E+00
  0.00000000E+00  0.00000000E+00  0.00000000E+00
  0.00000000E+00  0.00000000E+00  0.00000000E+00
  0.00000000E+00  0.00000000E+00  0.00000000E+00
  0.00000000E+00  0.00000000E+00  0.00000000E+00
  0.00000000E+00  0.00000000E+00  0.00000000E+00
  0.00000000E+00  0.00000000E+00  0.00000000E+00
