Calc_9_MAPbI3-cubic                     
   1.01200000000000     
     6.3666497688191566    0.0000224290014131    0.3161493288975722
     0.0000322161058340    6.4334823326497572   -0.0000259559081563
     0.3149457536275841   -0.0000284086091665    6.3053089755923075
   C    Sb   H    Pb   I 
     1     1     6     1     3
Selective dynamics
Direct
  0.8640093930618913  0.0000328179105614  0.9066546786922692   T   T   T
  0.0947648500076111  0.0000461195009054  0.1197123510323424   T   T   T
  0.9422363872988706  0.0000399593742734  0.7468768004413082   T   T   T
  0.7695503561345448  0.1386712648991358  0.9363854169894126   T   T   T
  0.7695498236560033  0.8614342725943710  0.9363845147654803   T   T   T
  0.2455199285276783  0.2143513220206129  0.0817983793378481   T   T   T
  0.2455147949792232  0.7857341502794858  0.0817942889449870   T   T   T
  0.9657545738360354  0.0000519520378632  0.3622056075302460   T   T   T
  0.4924481520544888  0.4999994173561509  0.5307401791611372   T   T   T
  0.5307777759533461  0.5000332287347656  0.0357976894477997   T   T   T
  0.4719233901371727  0.0000346753547982  0.5234776782451662   T   T   T
  0.0038659878194922  0.5000203179269150  0.5339409595611331   T   T   T
 
  0.00000000E+00  0.00000000E+00  0.00000000E+00
  0.00000000E+00  0.00000000E+00  0.00000000E+00
  0.00000000E+00  0.00000000E+00  0.00000000E+00
  0.00000000E+00  0.00000000E+00  0.00000000E+00
  0.00000000E+00  0.00000000E+00  0.00000000E+00
  0.00000000E+00  0.00000000E+00  0.00000000E+00
  0.00000000E+00  0.00000000E+00  0.00000000E+00
  0.00000000E+00  0.00000000E+00  0.00000000E+00
  0.00000000E+00  0.00000000E+00  0.00000000E+00
  0.00000000E+00  0.00000000E+00  0.00000000E+00
  0.00000000E+00  0.00000000E+00  0.00000000E+00
  0.00000000E+00  0.00000000E+00  0.00000000E+00
