Calc_4_MAPbI3-cubic                     
   1.01200000000000     
     6.5138214405239534    0.0004888610570394    0.3382806165312227
     0.0004772447930970    6.2297577870027796    0.0003985293643101
     0.3374109435375783    0.0003915021827371    6.3730300883780586
   K    Pb   I 
     1     1     3
Selective dynamics
Direct
  0.1146628334072369  0.0003016492069585  0.0616020757780482   T   T   T
  0.4587033259985103  0.4998360475468720  0.4740389132215072   T   T   T
  0.4210294189673154  0.5001072330525101  0.9715455517720323   T   T   T
  0.3684714046403161 -0.0000703290865015  0.5152504870372685   T   T   T
  0.9214805977094089  0.4997002635764205  0.3945875669683322   T   T   T
 
  0.00000000E+00  0.00000000E+00  0.00000000E+00
  0.00000000E+00  0.00000000E+00  0.00000000E+00
  0.00000000E+00  0.00000000E+00  0.00000000E+00
  0.00000000E+00  0.00000000E+00  0.00000000E+00
  0.00000000E+00  0.00000000E+00  0.00000000E+00
