MAPbI3-cubic                            
   1.01200000000000     
     6.3314432734380732   -0.0000369707215299    0.0124081669877103
    -0.0000422695411721    6.3222986974617950    0.0002448385370651
     0.0124484074811480    0.0002336794600863    6.3316394927021786
   Cs   Pb   I 
     1     1     3
Selective dynamics
Direct
  0.0100647315874761 -0.0000090494259394  0.0030905951538669   T   T   T
  0.4524955477451726  0.4999550300235141  0.4823889036483942   T   T   T
  0.4365721407621450  0.4999156110323887  0.9799900198368731   T   T   T
  0.4384226896957689  0.9999598044239097  0.4926916242859981   T   T   T
  0.9467924709322251  0.5000534682423865  0.4588634518520566   T   T   T
 
  0.00000000E+00  0.00000000E+00  0.00000000E+00
  0.00000000E+00  0.00000000E+00  0.00000000E+00
  0.00000000E+00  0.00000000E+00  0.00000000E+00
  0.00000000E+00  0.00000000E+00  0.00000000E+00
  0.00000000E+00  0.00000000E+00  0.00000000E+00
