MAPbI3-cubic                            
   1.01200000000000     
     6.1589968149534089    0.0057975210909129    0.0000000000000000
     0.0031958184843709    6.2254735856453403    0.0000000000000000
     0.0000000000000000    0.0000000000000000    6.2289244345777410
   As   H    Pb   I 
     1     4     1     3
Selective dynamics
Direct
  0.9947378026003270  0.0025819649790317  0.0000000000000000   T   T   T
  0.1459938385434663  0.8138385399282587  0.0000000000000000   T   T   T
  0.8527773361247217  0.9968558958033830  0.8042628090460442   T   T   T
  0.8527773361247217  0.9968558958033830  0.1957371909539559   T   T   T
  0.1289441120973250  0.2028545926966930  0.0000000000000000   T   T   T
  0.5060973321849564  0.5025798664426612  0.5000000000000000   T   T   T
  0.4948194442419050  0.5013909437377663  0.0000000000000000   T   T   T
  0.5204162169413514  0.0017126982710964  0.5000000000000000   T   T   T
  0.0063803112757085  0.5018702812028231  0.5000000000000000   T   T   T
 
  0.00000000E+00  0.00000000E+00  0.00000000E+00
  0.00000000E+00  0.00000000E+00  0.00000000E+00
  0.00000000E+00  0.00000000E+00  0.00000000E+00
  0.00000000E+00  0.00000000E+00  0.00000000E+00
  0.00000000E+00  0.00000000E+00  0.00000000E+00
  0.00000000E+00  0.00000000E+00  0.00000000E+00
  0.00000000E+00  0.00000000E+00  0.00000000E+00
  0.00000000E+00  0.00000000E+00  0.00000000E+00
  0.00000000E+00  0.00000000E+00  0.00000000E+00
