Calc_11_MAPbI3-cubic                    
   1.01200000000000     
     6.2873896523747801   -0.0000141642002346    0.2847558146135245
    -0.0000124995876784    6.3426152437517027    0.0000150446731449
     0.2865225316856160    0.0000183297426000    6.3119297174137046
   C    As   H    Pb   I 
     1     1     6     1     3
Selective dynamics
Direct
  0.8916211252036735 -0.0000173132344886  0.8992524144476862   T   T   T
  0.0998665990287648 -0.0000498029141617  0.0992447849883554   T   T   T
  0.9744901801343607  0.9999550543750818  0.7417923748859873   T   T   T
  0.7952012663354320  0.1405416285177119  0.9249785911221647   T   T   T
  0.7951915881716910  0.8593489917209329  0.9249901585113981   T   T   T
  0.2388214825025541  0.1927696388793290  0.0724064533857621   T   T   T
  0.2388180381338747  0.8071627856755850  0.0724109717319878   T   T   T
  0.9884897287699683  0.9999615836534356  0.3169532503765848   T   T   T
  0.5018122230941745  0.4999555366474350  0.5177555813365314   T   T   T
  0.5143113033102304  0.4999536936016626  0.0162808201038828   T   T   T
  0.4834293725935622  0.9999579710011085  0.5116524743157403   T   T   T
  0.0003641657331898  0.4999563921688372  0.5086518858998854   T   T   T
 
  0.00000000E+00  0.00000000E+00  0.00000000E+00
  0.00000000E+00  0.00000000E+00  0.00000000E+00
  0.00000000E+00  0.00000000E+00  0.00000000E+00
  0.00000000E+00  0.00000000E+00  0.00000000E+00
  0.00000000E+00  0.00000000E+00  0.00000000E+00
  0.00000000E+00  0.00000000E+00  0.00000000E+00
  0.00000000E+00  0.00000000E+00  0.00000000E+00
  0.00000000E+00  0.00000000E+00  0.00000000E+00
  0.00000000E+00  0.00000000E+00  0.00000000E+00
  0.00000000E+00  0.00000000E+00  0.00000000E+00
  0.00000000E+00  0.00000000E+00  0.00000000E+00
  0.00000000E+00  0.00000000E+00  0.00000000E+00
