MAPbI3-cubic                            
   1.01200000000000     
     6.3117329799081059   -0.0002735994515634    0.0531987793873231
    -0.0002771334879006    6.2992344368706243    0.0001414219662945
     0.0528605357317357    0.0001264090834914    6.3128104267992153
   Cs   Pb   I 
     1     1     3
Selective dynamics
Direct
  0.0296193754392263 -0.0000340789733602  0.0115467508504217   T   T   T
  0.4475650222166865  0.4999156439282889  0.4824146384667072   T   T   T
  0.4315479306980050  0.5000538972841252  0.9786737812372913   T   T   T
  0.4336286071394532  0.9999542597038220  0.4869664519564708   T   T   T
  0.9419866452294163  0.4999851423533841  0.4574229722662980   T   T   T
 
  0.00000000E+00  0.00000000E+00  0.00000000E+00
  0.00000000E+00  0.00000000E+00  0.00000000E+00
  0.00000000E+00  0.00000000E+00  0.00000000E+00
  0.00000000E+00  0.00000000E+00  0.00000000E+00
  0.00000000E+00  0.00000000E+00  0.00000000E+00
