MAPbI3-cubic                            
   1.01200000000000     
     5.9658166297896269    0.0008378534558353   -0.0974127550472791
     0.0008285765935466    5.9584425414951667    0.0003964013356126
    -0.0963479018023301    0.0004012918894930    5.9776099654684378
   Cs   Pb   I 
     1     1     3
Selective dynamics
Direct
 -0.0327247891315781  0.0000911456716644 -0.0152348384913380   T   T   T
  0.4630597751986268  0.4999774529024157  0.4814283579602120   T   T   T
  0.4441832472656690  0.4997815280640671  0.9819972483788320   T   T   T
  0.4501144131649678  0.9999663345092648  0.5132598501099009   T   T   T
  0.9597149342251017  0.5000584031488476  0.4555739768195818   T   T   T
 
  0.00000000E+00  0.00000000E+00  0.00000000E+00
  0.00000000E+00  0.00000000E+00  0.00000000E+00
  0.00000000E+00  0.00000000E+00  0.00000000E+00
  0.00000000E+00  0.00000000E+00  0.00000000E+00
  0.00000000E+00  0.00000000E+00  0.00000000E+00
