Calc_5_MAPbI3-cubic                     
   1.01200000000000     
     6.3455197428859407   -0.0000815691078027    0.1235759995744665
    -0.0000527135117093    6.1336636831995337    0.0007092460478662
     0.1195683439594791    0.0006829806744860    6.2260217906746842
   Na   Pb   I 
     1     1     3
Selective dynamics
Direct
  0.2135845268606991  0.0000986655586026  0.0154173049579225   T   T   T
  0.4470767947225616  0.4999702551232942  0.4812921605822977   T   T   T
  0.3744907926913674  0.4999579948515568  0.9803466681327327   T   T   T
  0.3367521203249144 -0.0000193996138230  0.5041486510341662   T   T   T
  0.9124433461232445  0.4998673483766291  0.4358198100700695   T   T   T
 
  0.00000000E+00  0.00000000E+00  0.00000000E+00
  0.00000000E+00  0.00000000E+00  0.00000000E+00
  0.00000000E+00  0.00000000E+00  0.00000000E+00
  0.00000000E+00  0.00000000E+00  0.00000000E+00
  0.00000000E+00  0.00000000E+00  0.00000000E+00
