Calc1_MAPbI3-cubic                      
   1.01200000000000     
     6.1217578754574919    0.0113672661752624    0.0000000000000000
     0.0078659981389698    6.1837431233806015    0.0000000000000000
     0.0000000000000000    0.0000000000000000    6.1873992402092197
   Sb   H    Pb   I 
     1     4     1     3
Selective dynamics
Direct
  0.0016801807163424  0.0028690287595772  0.0000000000000000   T   T   T
  0.1631248712692429  0.7836034206510577  0.0000000000000000   T   T   T
  0.8397866782862162  0.0025129686526713  0.7817235362428648   T   T   T
  0.8397866782862162  0.0025129686526713  0.2182764637571352   T   T   T
  0.1620137455647709  0.2221500112074736  0.0000000000000000   T   T   T
  0.4992859387943052  0.5016354026345264  0.5000000000000000   T   T   T
  0.5460668758059477  0.4996459707071126  0.0000000000000000   T   T   T
  0.4520008173466284  0.0018554971301022  0.5000000000000000   T   T   T
  0.9991979440648199  0.5037554104699253  0.5000000000000000   T   T   T
 
  0.00000000E+00  0.00000000E+00  0.00000000E+00
  0.00000000E+00  0.00000000E+00  0.00000000E+00
  0.00000000E+00  0.00000000E+00  0.00000000E+00
  0.00000000E+00  0.00000000E+00  0.00000000E+00
  0.00000000E+00  0.00000000E+00  0.00000000E+00
  0.00000000E+00  0.00000000E+00  0.00000000E+00
  0.00000000E+00  0.00000000E+00  0.00000000E+00
  0.00000000E+00  0.00000000E+00  0.00000000E+00
  0.00000000E+00  0.00000000E+00  0.00000000E+00
