Calc_11_MAPbI3-cubic                    
   1.01200000000000     
     6.2873896523747801   -0.0000141642002346    0.2847558146135245
    -0.0000124995876784    6.3426152437517027    0.0000150446731449
     0.2865225316856160    0.0000183297426000    6.3119297174137046
   C    As   H    Pb   I 
     1     1     6     1     3
Selective dynamics
Direct
  0.8969726636115812 -0.0000075994003616  0.8939615806216221   T   T   T
  0.0970500116487177 -0.0000714569495283  0.1024229140544956   T   T   T
  0.9853443357406951  0.9999627927903072  0.7389695552559075   T   T   T
  0.8001351787075653  0.1405953653843109  0.9165847617524643   T   T   T
  0.8001356730504341  0.8593059225121572  0.9166125053539327   T   T   T
  0.2360370847559943  0.1926988127358397  0.0808423760954665   T   T   T
  0.2360313957241855  0.8072469234161636  0.0808428380076351   T   T   T
  0.9788255613467538  0.9999676019612779  0.3170942231038508   T   T   T
  0.5025301350064564  0.4999424091426025  0.5226431332184097   T   T   T
  0.5174237175541508  0.4999495523891588  0.0199966373106247   T   T   T
  0.4750935060631984  0.9999534858422731  0.5223668013572486   T   T   T
 -0.0031621901982583  0.4999523502682682  0.4940324349743097   T   T   T
 
  0.00000000E+00  0.00000000E+00  0.00000000E+00
  0.00000000E+00  0.00000000E+00  0.00000000E+00
  0.00000000E+00  0.00000000E+00  0.00000000E+00
  0.00000000E+00  0.00000000E+00  0.00000000E+00
  0.00000000E+00  0.00000000E+00  0.00000000E+00
  0.00000000E+00  0.00000000E+00  0.00000000E+00
  0.00000000E+00  0.00000000E+00  0.00000000E+00
  0.00000000E+00  0.00000000E+00  0.00000000E+00
  0.00000000E+00  0.00000000E+00  0.00000000E+00
  0.00000000E+00  0.00000000E+00  0.00000000E+00
  0.00000000E+00  0.00000000E+00  0.00000000E+00
  0.00000000E+00  0.00000000E+00  0.00000000E+00
