Calc_6_MAPbI3-cubic                     
   1.01200000000000     
     6.1941310631857913    0.5803734980934134    0.0000000000000000
     0.5739855622559359    6.2728286680135978    0.0000000000000000
     0.0000000000000000    0.0000000000000000    6.0868514656173254
   N    H    Pb   I 
     1     4     1     3
Selective dynamics
Direct
  0.9599701748694066  0.9979661880138914  0.0000000000000000   T   T   T
  0.0967445541805416  0.8774574678098113  0.0000000000000000   T   T   T
  0.8681188230142549  0.9858313067549205  0.8608114102550957   T   T   T
  0.8681188230142549  0.9858313067549205  0.1391885897449042   T   T   T
  0.0078574050829793  0.1438587209621144  0.0000000000000000   T   T   T
  0.5408202430540948  0.5074676880680630  0.5000000000000000   T   T   T
  0.4698474776697559  0.6065411979752376  0.0000000000000000   T   T   T
  0.6425294272706603  0.0021903205224689  0.5000000000000000   T   T   T
  0.0489368019785344  0.4133964820036541  0.5000000000000000   T   T   T
 
  0.00000000E+00  0.00000000E+00  0.00000000E+00
  0.00000000E+00  0.00000000E+00  0.00000000E+00
  0.00000000E+00  0.00000000E+00  0.00000000E+00
  0.00000000E+00  0.00000000E+00  0.00000000E+00
  0.00000000E+00  0.00000000E+00  0.00000000E+00
  0.00000000E+00  0.00000000E+00  0.00000000E+00
  0.00000000E+00  0.00000000E+00  0.00000000E+00
  0.00000000E+00  0.00000000E+00  0.00000000E+00
  0.00000000E+00  0.00000000E+00  0.00000000E+00
