SYSTEM = Pt 

Electronic relaxation:
ENCUT   = 550.0  ! Cutoff energy for plane waves basis set in eV (determines NGX,Y,Z). 
ALGO    = Normal    ! 
NELMIN  = 6         ! Minimum number of eletronic selfconsistency (SC) steps
NELM    = 80        ! Maximum number of electronic SC steps
NELMDL  = -15        ! Number of NON-selfconsistency steps 
EDIFF   = 1.0E-7    ! Global-break condition for the electronic SC-loop (ELM) 

Calculation mode:
PREC    = Accurate  ! Calcululation level (Changes FFT-grids) 
ISPIN   = 2         ! spin-polarized calculations 
## ADDGRID = .TRUE.    ! PAW flag
LASPH   = .TRUE.    ! non-spherical elements in the PAW method



IVDW=11
     





LREAL = Auto
Ionic relaxation:
NSW     = 100       ! Number of ionic steps
EDIFFG  = -0.020    ! stop if all forces are smaller than |EDIFFG|
IBRION  = 2
ISIF    = 3 ! Calculate FORCE and Relaxa Ions
POTIM   = 0.50

Integration over the Brillouin zone (BZ):
ISMEAR  = 0         ! Gaussian 
SIGMA   = 0.010

DOS calculation:
LORBIT  = 10        ! Calculate the DOS without providing the Wigner Seitz radius
NEDOS   = 101 ! Number of points to calculate the DOS

OUTCAR size:
NWRITE  = 1         ! Determines how much information will be written in OUTCAR
LWAVE   = .FALSE.
LCHARG  = .FALSE.

Key for parallel mode calculation:
NCORE = 1
LPLANE = .TRUE. 

EOF