Calc_6_MAPbI3-cubic                     
   1.01200000000000     
     6.1833284197608407    0.5777631879112702    0.0000000000000000
     0.5633546407789776    6.2531594851917500    0.0000000000000000
     0.0000000000000000    0.0000000000000000    6.0705038006139169
   N    H    Pb   I 
     1     4     1     3
Selective dynamics
Direct
  0.9651438501045503  0.0085518037641929  0.0000000000000000   T   T   T
  0.0999471772981774  0.8852362368300540  0.0000000000000000   T   T   T
  0.8729691227391366 -0.0025213850497736  0.8604855814915597   T   T   T
  0.8729691227391366 -0.0025213850497736  0.1395144185084404   T   T   T
  0.0162857533129592  0.1534607725700654  0.0000000000000000   T   T   T
  0.5342829604767700  0.4985674788782916  0.5000000000000000   T   T   T
  0.4522873494359952  0.5955256067873792  0.0000000000000000   T   T   T
  0.6436756942150212 -0.0107676844331098  0.5000000000000000   T   T   T
  0.0453826998127362  0.3950092345677764  0.5000000000000000   T   T   T
 
  0.00000000E+00  0.00000000E+00  0.00000000E+00
  0.00000000E+00  0.00000000E+00  0.00000000E+00
  0.00000000E+00  0.00000000E+00  0.00000000E+00
  0.00000000E+00  0.00000000E+00  0.00000000E+00
  0.00000000E+00  0.00000000E+00  0.00000000E+00
  0.00000000E+00  0.00000000E+00  0.00000000E+00
  0.00000000E+00  0.00000000E+00  0.00000000E+00
  0.00000000E+00  0.00000000E+00  0.00000000E+00
  0.00000000E+00  0.00000000E+00  0.00000000E+00
