Calc_6_MAPbI3-cubic                     
   1.01200000000000     
     6.1452695883449833    0.5886804329483220    0.0000000000000000
     0.5740734236748530    6.2104642612586565    0.0000000000000000
     0.0000000000000000    0.0000000000000000    6.0478898131840468
   N    H    Pb   I 
     1     4     1     3
Selective dynamics
Direct
  0.9627487500231940  0.0108625284571359  0.0000000000000000   T   T   T
  0.1011164683569150  0.8890316235158827  0.0000000000000000   T   T   T
  0.8707578244582274 -0.0022656474399935  0.8598431062252673   T   T   T
  0.8707578244582274 -0.0022656474399935  0.1401568937747333   T   T   T
  0.0101897056268152  0.1584780165049993  0.0000000000000000   T   T   T
  0.5372368655247154  0.4965286482839077  0.5000000000000000   T   T   T
  0.4522101124250038  0.5985219102604468  0.0000000000000000   T   T   T
  0.6480552061103322 -0.0158758136093764  0.5000000000000000   T   T   T
  0.0498709731510518  0.3875250603320867  0.5000000000000000   T   T   T
 
  0.00000000E+00  0.00000000E+00  0.00000000E+00
  0.00000000E+00  0.00000000E+00  0.00000000E+00
  0.00000000E+00  0.00000000E+00  0.00000000E+00
  0.00000000E+00  0.00000000E+00  0.00000000E+00
  0.00000000E+00  0.00000000E+00  0.00000000E+00
  0.00000000E+00  0.00000000E+00  0.00000000E+00
  0.00000000E+00  0.00000000E+00  0.00000000E+00
  0.00000000E+00  0.00000000E+00  0.00000000E+00
  0.00000000E+00  0.00000000E+00  0.00000000E+00
