Calc_9_MAPbI3-cubic                     
   1.01200000000000     
     6.3081691982712300   -0.0000363527346910    0.3701602877940262
    -0.0000133035289269    6.3758923883908016   -0.0001774908738954
     0.3682492727253639   -0.0001793747134226    6.2032586144863204
   C    Sb   H    Pb   I 
     1     1     6     1     3
Selective dynamics
Direct
  0.8728668682568574  0.0000075543872246  0.8975853940588110   T   T   T
  0.0926787835333276  0.0000424245734316  0.1251634462312247   T   T   T
  0.9609773093905648  0.0000324800098631  0.7374043624523400   T   T   T
  0.7759725665780640  0.1398836018526556  0.9235430394751196   T   T   T
  0.7760001814399020  0.8602217749307565  0.9235425457934383   T   T   T
  0.2460037757952703  0.2155083765028848  0.0933723898265786   T   T   T
  0.2460181993067091  0.7845767688388636  0.0933830276594467   T   T   T
  0.9525489739001851  0.0000472969000067  0.3695058685881780   T   T   T
  0.4782845103131374  0.4999845748199745  0.5321496622243965   T   T   T
  0.5388332854082732  0.5000491206050505  0.0372861229830196   T   T   T
  0.4632691998030780  0.0000186819610491  0.5480254032161271   T   T   T
 -0.0075382402590206  0.5000768426080705  0.5148072816404636   T   T   T
 
  0.00000000E+00  0.00000000E+00  0.00000000E+00
  0.00000000E+00  0.00000000E+00  0.00000000E+00
  0.00000000E+00  0.00000000E+00  0.00000000E+00
  0.00000000E+00  0.00000000E+00  0.00000000E+00
  0.00000000E+00  0.00000000E+00  0.00000000E+00
  0.00000000E+00  0.00000000E+00  0.00000000E+00
  0.00000000E+00  0.00000000E+00  0.00000000E+00
  0.00000000E+00  0.00000000E+00  0.00000000E+00
  0.00000000E+00  0.00000000E+00  0.00000000E+00
  0.00000000E+00  0.00000000E+00  0.00000000E+00
  0.00000000E+00  0.00000000E+00  0.00000000E+00
  0.00000000E+00  0.00000000E+00  0.00000000E+00
