Calc_6_MAPbI3-cubic                     
   1.01200000000000     
     6.2352165360966696    0.0465701625881736    0.0000000000000000
     0.0446286856475916    6.2419780148406661    0.0000000000000000
     0.0000000000000000    0.0000000000000000    6.1810469599111917
   N    H    Pb   I 
     1     4     1     3
Selective dynamics
Direct
  0.9323499601929666  0.9988423023115088  0.0000000000000000   T   T   T
  0.0243092920470061  0.8628096830689230  0.0000000000000000   T   T   T
  0.8371707915205439  1.0009795103408579  0.8630234642258194   T   T   T
  0.8371707915205439  1.0009795103408579  0.1369765357741736   T   T   T
  0.0261262524444834  0.1308232113640057  0.0000000000000000   T   T   T
  0.5685229356235285  0.5077071563519581  0.5000000000000000   T   T   T
  0.5776197778091399  0.5059642646707658  0.0000000000000000   T   T   T
  0.6242425860267992  0.0076940883198384  0.5000000000000000   T   T   T
  0.0754313429494791  0.5047409520963944  0.5000000000000000   T   T   T
 
  0.00000000E+00  0.00000000E+00  0.00000000E+00
  0.00000000E+00  0.00000000E+00  0.00000000E+00
  0.00000000E+00  0.00000000E+00  0.00000000E+00
  0.00000000E+00  0.00000000E+00  0.00000000E+00
  0.00000000E+00  0.00000000E+00  0.00000000E+00
  0.00000000E+00  0.00000000E+00  0.00000000E+00
  0.00000000E+00  0.00000000E+00  0.00000000E+00
  0.00000000E+00  0.00000000E+00  0.00000000E+00
  0.00000000E+00  0.00000000E+00  0.00000000E+00
