MAPbI3-cubic                            
   1.01200000000000     
     6.2004381447536243   -0.0569313852793099    0.0000000000000000
    -0.0568387988228045    6.0662174678293708    0.0000000000000000
     0.0000000000000000    0.0000000000000000    6.0635422217456227
   N    H    Pb   I 
     1     4     1     3
Selective dynamics
Direct
  0.0004350618056275 -0.0007537210969775  0.0000000000000000   T   T   T
  0.1005090831125538  0.8655503009163099  0.0000000000000000   T   T   T
  0.9046540257674862  0.9941551402851839  0.8611520507130790   T   T   T
  0.9046540257674862  0.9941551402851839  0.1388479492869278   T   T   T
  0.0921532848333965  0.1427719871042526  0.0000000000000000   T   T   T
  0.4995144062951995  0.4967880170706569  0.5000000000000000   T   T   T
  0.3881245478899685  0.5021373466654115  0.0000000000000000   T   T   T
  0.6102984879848230  0.9975180696580288  0.5000000000000000   T   T   T
 -0.0005922064850510  0.5076684137622366  0.5000000000000000   T   T   T
 
  0.00000000E+00  0.00000000E+00  0.00000000E+00
  0.00000000E+00  0.00000000E+00  0.00000000E+00
  0.00000000E+00  0.00000000E+00  0.00000000E+00
  0.00000000E+00  0.00000000E+00  0.00000000E+00
  0.00000000E+00  0.00000000E+00  0.00000000E+00
  0.00000000E+00  0.00000000E+00  0.00000000E+00
  0.00000000E+00  0.00000000E+00  0.00000000E+00
  0.00000000E+00  0.00000000E+00  0.00000000E+00
  0.00000000E+00  0.00000000E+00  0.00000000E+00
