Calc_9_MAPbI3-cubic                     
   1.01200000000000     
     6.3066365084643543   -0.0000659903306400    0.3168141344286302
    -0.0000470321823461    6.3894796316661751   -0.0002523319441801
     0.3144036735371780   -0.0002530954046279    6.2537629250690614
   C    Sb   H    Pb   I 
     1     1     6     1     3
Selective dynamics
Direct
  0.8684955409668563  0.0000100849444285  0.9013482006513719   T   T   T
  0.0934634600002659  0.0000324674209720  0.1247281316741381   T   T   T
  0.9530152352330022  0.0000020259469631  0.7424370397215527   T   T   T
  0.7724947013233751  0.1395291586065047  0.9278652586111489   T   T   T
  0.7724941673110112  0.8604977812105161  0.9278584909795450   T   T   T
  0.2459357062381933  0.2155799563511972  0.0904817056475051   T   T   T
  0.2459446298686060  0.7844758705624073  0.0904777365017186   T   T   T
  0.9559333585032208  0.0000406996232998  0.3656731368985345   T   T   T
  0.4956215310799647  0.5000711736810728  0.5356969847589417   T   T   T
  0.5348432734870850  0.5000254422211616  0.0365696490260246   T   T   T
  0.4609619269420110  0.0002010188357376  0.5353016358214560   T   T   T
 -0.0032881174872365  0.4999838185855942  0.5173305738572115   T   T   T
 
  0.00000000E+00  0.00000000E+00  0.00000000E+00
  0.00000000E+00  0.00000000E+00  0.00000000E+00
  0.00000000E+00  0.00000000E+00  0.00000000E+00
  0.00000000E+00  0.00000000E+00  0.00000000E+00
  0.00000000E+00  0.00000000E+00  0.00000000E+00
  0.00000000E+00  0.00000000E+00  0.00000000E+00
  0.00000000E+00  0.00000000E+00  0.00000000E+00
  0.00000000E+00  0.00000000E+00  0.00000000E+00
  0.00000000E+00  0.00000000E+00  0.00000000E+00
  0.00000000E+00  0.00000000E+00  0.00000000E+00
  0.00000000E+00  0.00000000E+00  0.00000000E+00
  0.00000000E+00  0.00000000E+00  0.00000000E+00
