Calc_4_MAPbI3-cubic                     
   1.01200000000000     
     6.3049982130121478    0.0019204937543474    0.2712272565712901
     0.0019376354952964    6.1892435016233307    0.0017174656159364
     0.2702191372484609    0.0014086858636508    6.3117208457420304
   K    Pb   I 
     1     1     3
Selective dynamics
Direct
  0.1034181622743890  0.0002130236209797  0.0578043058415003   T   T   T
  0.4449903924036832  0.4997470232379621  0.4728830153816872   T   T   T
  0.4306084887007270  0.4998943981874075  0.9708583827381463   T   T   T
  0.3767608559917641  0.9998266115665232  0.5197188310315141   T   T   T
  0.9285696813522172  0.5001938076833871  0.3957600597843411   T   T   T
 
  0.00000000E+00  0.00000000E+00  0.00000000E+00
  0.00000000E+00  0.00000000E+00  0.00000000E+00
  0.00000000E+00  0.00000000E+00  0.00000000E+00
  0.00000000E+00  0.00000000E+00  0.00000000E+00
  0.00000000E+00  0.00000000E+00  0.00000000E+00
