MAPbI3-cubic                            
   1.01200000000000     
     6.2696892093037144   -0.0000002231423293    0.0563607151783191
     0.0000011114717433    6.2158443501194034   -0.0000325397285410
     0.0560327359943555   -0.0000330355085371    6.3223500239734349
   C    N    H    Pb   I 
     1     1     6     1     3
Selective dynamics
Direct
  0.9078721713743226  0.9999606924372056  0.9780528778460654   T   T   T
  0.1323547524199303  0.9999145856383190  0.0423849072398770   T   T   T
  0.9027530702779277  0.9998900513266594  0.8070182906109804   T   T   T
  0.8312111884845261  0.1429653864546765  0.0408656547029518   T   T   T
  0.8311176140628755  0.8570594297717136  0.0409801386434634   T   T   T
  0.2128698756619602  0.1336146116838960  0.9877856422107412   T   T   T
  0.2128003351989930  0.8661402255787811  0.9878540495769341   T   T   T
  0.1489025682108649  0.9999536055439712  0.2037360361542329   T   T   T
  0.4770967054258222  0.4999433386995242  0.4777928660738271   T   T   T
  0.4313061927760373  0.4999237978478006  0.9752497444884637   T   T   T
  0.4309234323454781  0.9999488429461311  0.5158944200581994   T   T   T
  0.9587734817612230  0.4999878790712629  0.4381731123942110   T   T   T
 
  0.00000000E+00  0.00000000E+00  0.00000000E+00
  0.00000000E+00  0.00000000E+00  0.00000000E+00
  0.00000000E+00  0.00000000E+00  0.00000000E+00
  0.00000000E+00  0.00000000E+00  0.00000000E+00
  0.00000000E+00  0.00000000E+00  0.00000000E+00
  0.00000000E+00  0.00000000E+00  0.00000000E+00
  0.00000000E+00  0.00000000E+00  0.00000000E+00
  0.00000000E+00  0.00000000E+00  0.00000000E+00
  0.00000000E+00  0.00000000E+00  0.00000000E+00
  0.00000000E+00  0.00000000E+00  0.00000000E+00
  0.00000000E+00  0.00000000E+00  0.00000000E+00
  0.00000000E+00  0.00000000E+00  0.00000000E+00
