Calc_5_MAPbI3-cubic                     
   1.01200000000000     
     6.3513022502350589   -0.0028962085926887    0.0142673893503132
    -0.0027204344424899    6.2461849931910258    0.0003506503986199
     0.0089819319186253    0.0009239559387450    6.2505799591667000
   Na   Pb   I 
     1     1     3
Selective dynamics
Direct
  0.2440162711273434  0.0000637897487393  0.9882006201079591   T   T   T
  0.4359811053362360  0.5000333658324942  0.4834476445922767   T   T   T
  0.3509860186893874  0.5000295817448734  0.9833696334493789   T   T   T
  0.3513296153309091  0.9998362618312414  0.4876404692947544   T   T   T
  0.9020345702389114  0.4999118651389112  0.4743662273328270   T   T   T
 
  0.00000000E+00  0.00000000E+00  0.00000000E+00
  0.00000000E+00  0.00000000E+00  0.00000000E+00
  0.00000000E+00  0.00000000E+00  0.00000000E+00
  0.00000000E+00  0.00000000E+00  0.00000000E+00
  0.00000000E+00  0.00000000E+00  0.00000000E+00
