Calc_6_MAPbI3-cubic                     
   1.01200000000000     
     6.1698106186528223    0.6625887331901387    0.0000000000000000
     0.6489182602848034    6.2484597539694420    0.0000000000000000
     0.0000000000000000    0.0000000000000000    6.0098403136137870
   N    H    Pb   I 
     1     4     1     3
Selective dynamics
Direct
  0.9611079041445391  0.0227436226800256  0.0000000000000000   T   T   T
  0.1016776808335377  0.9015573010676056  0.0000000000000000   T   T   T
  0.8701774729408369  0.0084810620251489  0.8589420890641667   T   T   T
  0.8701774729408369  0.0084810620251489  0.1410579109358336   T   T   T
  0.0044485056300806  0.1703241898791689  0.0000000000000000   T   T   T
  0.5445843261589762  0.4831702938250174  0.5000000000000000   T   T   T
  0.4481036800691467  0.5894856861892865  0.0000000000000000   T   T   T
  0.6504726013356842 -0.0309465991037094  0.5000000000000000   T   T   T
  0.0521940860808297  0.3672440602773963  0.5000000000000000   T   T   T
 
  0.00000000E+00  0.00000000E+00  0.00000000E+00
  0.00000000E+00  0.00000000E+00  0.00000000E+00
  0.00000000E+00  0.00000000E+00  0.00000000E+00
  0.00000000E+00  0.00000000E+00  0.00000000E+00
  0.00000000E+00  0.00000000E+00  0.00000000E+00
  0.00000000E+00  0.00000000E+00  0.00000000E+00
  0.00000000E+00  0.00000000E+00  0.00000000E+00
  0.00000000E+00  0.00000000E+00  0.00000000E+00
  0.00000000E+00  0.00000000E+00  0.00000000E+00
