Calc_10_MAPbI3-cubic                    
   1.01200000000000     
     6.2494127222343172   -0.0001695180801001    0.2157260567969711
    -0.0001540353609198    6.2894794965878713   -0.0001232956681894
     0.2165649948688102   -0.0001158051924919    6.2450308823157039
   C    P    H    Pb   I 
     1     1     6     1     3
Selective dynamics
Direct
  0.8960960267592157  0.0000765397433973  0.9339142732840147   T   T   T
  0.0976692906574380 -0.0000196386808252  0.1197700447216448   T   T   T
  0.9726841227993258  0.0001211013511632  0.7728700413622873   T   T   T
  0.7977410371102314  0.1414628006608969  0.9580181882226583   T   T   T
  0.7976692222552590  0.8587345595280552  0.9579112196207448   T   T   T
  0.2284583376062499  0.1801907858514461  0.0909558733176569   T   T   T
  0.2283567135152324  0.8197361652496855  0.0908733326624065   T   T   T
  0.0059794061626507  0.9999586805551561  0.3288113475083900   T   T   T
  0.5000000000000000  0.5000000000000000  0.5000000000000000   F   F   F
  0.5000000000000000  0.5000000000000000  0.0000000000000000   F   F   F
  0.5000000000000000  0.0000000000000000  0.5000000000000000   F   F   F
  0.0000000000000000  0.5000000000000000  0.5000000000000000   F   F   F
 
  0.00000000E+00  0.00000000E+00  0.00000000E+00
  0.00000000E+00  0.00000000E+00  0.00000000E+00
  0.00000000E+00  0.00000000E+00  0.00000000E+00
  0.00000000E+00  0.00000000E+00  0.00000000E+00
  0.00000000E+00  0.00000000E+00  0.00000000E+00
  0.00000000E+00  0.00000000E+00  0.00000000E+00
  0.00000000E+00  0.00000000E+00  0.00000000E+00
  0.00000000E+00  0.00000000E+00  0.00000000E+00
  0.00000000E+00  0.00000000E+00  0.00000000E+00
  0.00000000E+00  0.00000000E+00  0.00000000E+00
  0.00000000E+00  0.00000000E+00  0.00000000E+00
  0.00000000E+00  0.00000000E+00  0.00000000E+00
