Calc_10_MAPbI3-cubic                    
   1.01200000000000     
     6.2766890330805376   -0.0001481951212967    0.2275417376065607
    -0.0001328031726610    6.3191943390101546   -0.0000499937533220
     0.2285356649886160   -0.0000410604244175    6.2812113998738672
   C    P    H    Pb   I 
     1     1     6     1     3
Selective dynamics
Direct
  0.9145086981884321  0.0000448101272196  0.9146869112161546   T   T   T
  0.0920362714716493  0.0000207595701473  0.1218346371930100   T   T   T
  0.0091732922903571  0.0000724783021334  0.7629516329096152   T   T   T
  0.8149447374582763  0.1407782324637430  0.9286391693710064   T   T   T
  0.8149532132882045  0.8592989076872327  0.9285934721803639   T   T   T
  0.2234348743040956  0.1789011036773019  0.1089716153999556   T   T   T
  0.2234105669985043  0.8211340359875813  0.1089224080211011   T   T   T
 -0.0206776429477243 -0.0000057334204421  0.3204604154641692   T   T   T
  0.4863869910626040  0.4999802565987916  0.5243634080563164   T   T   T
  0.5182835908398032  0.5000302311880676  0.0204688865364651   T   T   T
  0.4652226795607682  0.0000066097783435  0.5366326574802700   T   T   T
 -0.0143202417108309  0.5000057228810770  0.4764996134466696   T   T   T
 
  0.00000000E+00  0.00000000E+00  0.00000000E+00
  0.00000000E+00  0.00000000E+00  0.00000000E+00
  0.00000000E+00  0.00000000E+00  0.00000000E+00
  0.00000000E+00  0.00000000E+00  0.00000000E+00
  0.00000000E+00  0.00000000E+00  0.00000000E+00
  0.00000000E+00  0.00000000E+00  0.00000000E+00
  0.00000000E+00  0.00000000E+00  0.00000000E+00
  0.00000000E+00  0.00000000E+00  0.00000000E+00
  0.00000000E+00  0.00000000E+00  0.00000000E+00
  0.00000000E+00  0.00000000E+00  0.00000000E+00
  0.00000000E+00  0.00000000E+00  0.00000000E+00
  0.00000000E+00  0.00000000E+00  0.00000000E+00
