MAPbI3-cubic                            
   1.01200000000000     
     6.1227037998409299    0.0047185306233934    0.0000000000000000
     0.0023929609565216    6.1645781268161830    0.0000000000000000
     0.0000000000000000    0.0000000000000000    6.1638415960188739
   P    H    Pb   I 
     1     4     1     3
Selective dynamics
Direct
  0.9987331108438381  0.0019062853911507  0.0000000000000000   T   T   T
  0.1390797014923365  0.8211435567898051  0.0000000000000000   T   T   T
  0.8652347666945297  0.9968968469246475  0.8142488518027106   T   T   T
  0.8652347666945297  0.9968968469246475  0.1857511481972895   T   T   T
  0.1258182791144178  0.1917936176511787  0.0000000000000000   T   T   T
  0.5003390659992277  0.4988535052160937  0.5000000000000000   T   T   T
  0.4817953778445816  0.4986582565312465  0.0000000000000000   T   T   T
  0.5196184168636013  0.9986216954676064  0.5000000000000000   T   T   T
  0.0004022836635798  0.4974087235269204  0.5000000000000000   T   T   T
 
  0.00000000E+00  0.00000000E+00  0.00000000E+00
  0.00000000E+00  0.00000000E+00  0.00000000E+00
  0.00000000E+00  0.00000000E+00  0.00000000E+00
  0.00000000E+00  0.00000000E+00  0.00000000E+00
  0.00000000E+00  0.00000000E+00  0.00000000E+00
  0.00000000E+00  0.00000000E+00  0.00000000E+00
  0.00000000E+00  0.00000000E+00  0.00000000E+00
  0.00000000E+00  0.00000000E+00  0.00000000E+00
  0.00000000E+00  0.00000000E+00  0.00000000E+00
