Calc_10_MAPbI3-cubic                    
   1.01200000000000     
     6.2862919777023816   -0.0001993048178945    0.2097373628192074
    -0.0001829103935530    6.3264189452354032   -0.0001467998091027
     0.2108264586762834   -0.0001392797323736    6.2778009722738926
   C    P    H    Pb   I 
     1     1     6     1     3
Selective dynamics
Direct
  0.8961678773126287  0.0000821508300021  0.9336558072018566   T   T   T
  0.0968619689488307 -0.0000186830367772  0.1187345039462124   T   T   T
  0.9718742455556432  0.0001242718687426  0.7734676154082886   T   T   T
  0.7984741961513554  0.1405716262710017  0.9576253492469782   T   T   T
  0.7983937135659596  0.8596201688777142  0.9575233271142769   T   T   T
  0.2271010541073216  0.1790038929516559  0.0905032842521625   T   T   T
  0.2270080130637510  0.8209257438519826  0.0904186410814094   T   T   T
  0.0064306754346557  0.9999671415149317  0.3268954985400492   T   T   T
  0.5000000000000000  0.5000000000000000  0.5000000000000000   F   F   F
  0.5000000000000000  0.5000000000000000  0.0000000000000000   F   F   F
  0.5000000000000000  0.0000000000000000  0.5000000000000000   F   F   F
  0.0000000000000000  0.5000000000000000  0.5000000000000000   F   F   F
 
  0.00000000E+00  0.00000000E+00  0.00000000E+00
  0.00000000E+00  0.00000000E+00  0.00000000E+00
  0.00000000E+00  0.00000000E+00  0.00000000E+00
  0.00000000E+00  0.00000000E+00  0.00000000E+00
  0.00000000E+00  0.00000000E+00  0.00000000E+00
  0.00000000E+00  0.00000000E+00  0.00000000E+00
  0.00000000E+00  0.00000000E+00  0.00000000E+00
  0.00000000E+00  0.00000000E+00  0.00000000E+00
  0.00000000E+00  0.00000000E+00  0.00000000E+00
  0.00000000E+00  0.00000000E+00  0.00000000E+00
  0.00000000E+00  0.00000000E+00  0.00000000E+00
  0.00000000E+00  0.00000000E+00  0.00000000E+00
