Calc_6_MAPbI3-cubic                     
   1.01200000000000     
     6.2489786135876884    0.4947514316698026    0.0000000000000000
     0.4834500037031992    6.3319304280265731    0.0000000000000000
     0.0000000000000000    0.0000000000000000    6.1175746835511084
   N    H    Pb   I 
     1     4     1     3
Selective dynamics
Direct
  0.9855968884282751  0.0054888615991389  0.0000000000000000   T   T   T
  0.1143129496001161  0.8822051414968529  0.0000000000000000   T   T   T
  0.8932934521256102  0.9965646270787812  0.8616886731420716   T   T   T
  0.8932934521256102  0.9965646270787812  0.1383113268579297   T   T   T
  0.0430761711377319  0.1468474433125609  0.0000000000000000   T   T   T
  0.5473589624214877  0.5042930198616594  0.5000000000000000   T   T   T
  0.4559950677128262  0.5959779276806624  0.0000000000000000   T   T   T
  0.6512720678195842  0.9986371680966863  0.5000000000000000   T   T   T
  0.0530456721405580  0.4151958481388092  0.5000000000000000   T   T   T
 
  0.00000000E+00  0.00000000E+00  0.00000000E+00
  0.00000000E+00  0.00000000E+00  0.00000000E+00
  0.00000000E+00  0.00000000E+00  0.00000000E+00
  0.00000000E+00  0.00000000E+00  0.00000000E+00
  0.00000000E+00  0.00000000E+00  0.00000000E+00
  0.00000000E+00  0.00000000E+00  0.00000000E+00
  0.00000000E+00  0.00000000E+00  0.00000000E+00
  0.00000000E+00  0.00000000E+00  0.00000000E+00
  0.00000000E+00  0.00000000E+00  0.00000000E+00
