Calc_6_MAPbI3-cubic                     
   1.01200000000000     
     6.2227252345402837    0.0384194522564512    0.0000000000000000
     0.0365287652664124    6.2119048692759833    0.0000000000000000
     0.0000000000000000    0.0000000000000000    6.1628800959531205
   N    H    Pb   I 
     1     4     1     3
Selective dynamics
Direct
  0.9320806211868642  0.9985095423070421  0.0000000000000000   T   T   T
  0.0241876792667442  0.8620183699946345  0.0000000000000000   T   T   T
  0.8366855309289032  1.0002174671314026  0.8626332213931314   T   T   T
  0.8366855309289032  1.0002174671314026  0.1373667786068614   T   T   T
  0.0257522989706518  0.1315736205866407  0.0000000000000000   T   T   T
  0.5658378071689562  0.5082677207079040  0.5000000000000000   T   T   T
  0.5810352356621822  0.5070907328285154  0.0000000000000000   T   T   T
  0.6253856711264384  0.0078225919486066  0.5000000000000000   T   T   T
  0.0752933548948447  0.5048231662289618  0.5000000000000000   T   T   T
 
  0.00000000E+00  0.00000000E+00  0.00000000E+00
  0.00000000E+00  0.00000000E+00  0.00000000E+00
  0.00000000E+00  0.00000000E+00  0.00000000E+00
  0.00000000E+00  0.00000000E+00  0.00000000E+00
  0.00000000E+00  0.00000000E+00  0.00000000E+00
  0.00000000E+00  0.00000000E+00  0.00000000E+00
  0.00000000E+00  0.00000000E+00  0.00000000E+00
  0.00000000E+00  0.00000000E+00  0.00000000E+00
  0.00000000E+00  0.00000000E+00  0.00000000E+00
