Calc_11_MAPbI3-cubic                    
   1.01200000000000     
     6.2873896523747801   -0.0000141642002346    0.2847558146135245
    -0.0000124995876784    6.3426152437517027    0.0000150446731449
     0.2865225316856160    0.0000183297426000    6.3119297174137046
   C    As   H    Pb   I 
     1     1     6     1     3
Selective dynamics
Direct
  0.8957748032232641 -0.0000641357078496  0.8998992196985750   T   T   T
  0.0986943807611104 -0.0000281365872070  0.1059758388992765   T   T   T
  0.9825137375901347  0.9999484511152286  0.7441740277834465   T   T   T
  0.7988857115249668  0.1405612908882745  0.9231267441638162   T   T   T
  0.7988612320302151  0.8593479168631717  0.9231026712424527   T   T   T
  0.2374072771453781  0.1927507380894806  0.0812137042409266   T   T   T
  0.2374133105542940  0.8071587513460529  0.0812246807327020   T   T   T
  0.9825905819605526  0.9999558638253164  0.3215002581753427   T   T   T
  0.5060281867654037  0.4999531578205232  0.5157988783544573   T   T   T
  0.5108516692701306  0.5000027458239488  0.0121509504353051   T   T   T
  0.4759927511513884  0.9999645943167396  0.5108279277139763   T   T   T
 -0.0025965689653639  0.4999449222987896  0.4873748596656894   T   T   T
 
  0.00000000E+00  0.00000000E+00  0.00000000E+00
  0.00000000E+00  0.00000000E+00  0.00000000E+00
  0.00000000E+00  0.00000000E+00  0.00000000E+00
  0.00000000E+00  0.00000000E+00  0.00000000E+00
  0.00000000E+00  0.00000000E+00  0.00000000E+00
  0.00000000E+00  0.00000000E+00  0.00000000E+00
  0.00000000E+00  0.00000000E+00  0.00000000E+00
  0.00000000E+00  0.00000000E+00  0.00000000E+00
  0.00000000E+00  0.00000000E+00  0.00000000E+00
  0.00000000E+00  0.00000000E+00  0.00000000E+00
  0.00000000E+00  0.00000000E+00  0.00000000E+00
  0.00000000E+00  0.00000000E+00  0.00000000E+00
